<?xml version="1.0"?>
<VTKFile type="UnstructuredGrid" version="0.1" byte_order="LittleEndian">
<UnstructuredGrid>
<Piece NumberOfPoints="3142" NumberOfCells="1054">
<Points>
<DataArray type="Float64" NumberOfComponents="3" format="ascii">
0.02576622439977887 0.024532886826226379 0 0 0 0 0.049999999999899652 0 0 0.02576622439977887 0.024532886826226379 0 0 0 0 0 0.050000000000207989 0 0.02576622439977887 0.024532886826226379 0 0.049999999999899652 0 0 0.053064897599215843 0.048131547304697528 0 0.02576622439977887 0.024532886826226379 0 0.053064897599215843 0.048131547304697528 0 0 0.050000000000207989 0 0 0.050000000000207989 0 0 0.10000000000041601 0 0.044310582753132287 0.101412518374475 0 0 0.10000000000041601 0 0.044310582753132287 0.101412518374475 0 0 0.15000000000062411 0 0.053064897599215843 0.048131547304697528 0 0.044310582753132287 0.101412518374475 0 0.083411279318303222 0.089699755330707398 0 0.053064897599215843 0.048131547304697528 0 0 0.050000000000207989 0 0.044310582753132287 0.101412518374475 0 0.044310582753132287 0.101412518374475 0 0.083411279318303222 0.089699755330707398 0 0.065374659239632718 0.1448908038746782 0 0.083411279318303222 0.089699755330707398 0 0.065374659239632718 0.1448908038746782 0 0.1053400320299198 0.12877248826361379 0 0.083411279318303222 0.089699755330707398 0 0.12372429750337779 0.095814237875728972 0 0.1053400320299198 0.12877248826361379 0 0.12372429750337779 0.095814237875728972 0 0.1053400320299198 0.12877248826361379 0 0.14332333627550789 0.14578431753966009 0 0.12372429750337779 0.095814237875728972 0 0.10266856499169109 0.044518360900210059 0 0.14618258501891079 0.062070108745602003 0 0.083411279318303222 0.089699755330707398 0 0.12372429750337779 0.095814237875728972 0 0.10266856499169109 0.044518360900210059 0 0.10266856499169109 0.044518360900210059 0 0.099999999999814668 0 0 0.14999999999970359 0 0 0.049999999999899652 0 0 0.053064897599215843 0.048131547304697528 0 0.099999999999814668 0 0 0.053064897599215843 0.048131547304697528 0 0.10266856499169109 0.044518360900210059 0 0.099999999999814668 0 0 0.053064897599215843 0.048131547304697528 0 0.083411279318303222 0.089699755330707398 0 0.10266856499169109 0.044518360900210059 0 0.044081577119474857 0.2271058242433576 0 0 0.20000000000083221 0 0 0.25000000000104028 0 0.044081577119474857 0.2271058242433576 0 0 0.20000000000083221 0 0.038512288486115001 0.1844147282893184 0 0.044081577119474857 0.2271058242433576 0 0.038512288486115001 0.1844147282893184 0 0.083105206071467416 0.20007701332709979 0 0.038512288486115001 0.1844147282893184 0 0 0.15000000000062411 0 0.065374659239632718 0.1448908038746782 0 0.044310582753132287 0.101412518374475 0 0 0.15000000000062411 0 0.065374659239632718 0.1448908038746782 0 0.038512288486115001 0.1844147282893184 0 0.065374659239632718 0.1448908038746782 0 0.083105206071467416 0.20007701332709979 0 0 0.20000000000083221 0 0.038512288486115001 0.1844147282893184 0 0 0.15000000000062411 0 0.065374659239632718 0.1448908038746782 0 0.1053400320299198 0.12877248826361379 0 0.106902708054812 0.16453234188234539 0 0.1053400320299198 0.12877248826361379 0 0.106902708054812 0.16453234188234539 0 0.14332333627550789 0.14578431753966009 0 0.065374659239632718 0.1448908038746782 0 0.106902708054812 0.16453234188234539 0 0.083105206071467416 0.20007701332709979 0 0.083105206071467416 0.20007701332709979 0 0.095326043202144745 0.24554465089224409 0 0.13737030665753211 0.20313708640667491 0 0.106902708054812 0.16453234188234539 0 0.083105206071467416 0.20007701332709979 0 0.13737030665753211 0.20313708640667491 0 0.044081577119474857 0.2271058242433576 0 0.083105206071467416 0.20007701332709979 0 0.095326043202144745 0.24554465089224409 0 0.044081577119474857 0.2271058242433576 0 0.095326043202144745 0.24554465089224409 0 0.049706944316556423 0.27522722923869108 0 0.095326043202144745 0.24554465089224409 0 0.14377654328998779 0.2442024734791064 0 0.13737030665753211 0.20313708640667491 0 0.17933913398461551 0.2350063570234002 0 0.14377654328998779 0.2442024734791064 0 0.13737030665753211 0.20313708640667491 0 0.17933913398461551 0.2350063570234002 0 0.13737030665753211 0.20313708640667491 0 0.18124454140915969 0.18790916706335251 0 0.18124454140915969 0.18790916706335251 0 0.14332333627550789 0.14578431753966009 0 0.18652628422869419 0.14162325200928061 0 0.106902708054812 0.16453234188234539 0 0.13737030665753211 0.20313708640667491 0 0.14332333627550789 0.14578431753966009 0 0.13737030665753211 0.20313708640667491 0 0.18124454140915969 0.18790916706335251 0 0.14332333627550789 0.14578431753966009 0 0.14332333627550789 0.14578431753966009 0 0.18652628422869419 0.14162325200928061 0 0.16141998738593399 0.10404039647458049 0 0.18652628422869419 0.14162325200928061 0 0.22985637510995899 0.1298347970200906 0 0.2185883431182947 0.18019736283949719 0 0.22985637510995899 0.1298347970200906 0 0.2185883431182947 0.18019736283949719 0 0.25557216766470708 0.15874861286892261 0 0.2185883431182947 0.18019736283949719 0 0.25557216766470708 0.15874861286892261 0 0.26429849586623999 0.19346700179430079 0 0.18124454140915969 0.18790916706335251 0 0.18652628422869419 0.14162325200928061 0 0.2185883431182947 0.18019736283949719 0 0.17933913398461551 0.2350063570234002 0 0.18124454140915969 0.18790916706335251 0 0.224700362040408 0.22206622194729711 0 0.18124454140915969 0.18790916706335251 0 0.2185883431182947 0.18019736283949719 0 0.224700362040408 0.22206622194729711 0 0.2185883431182947 0.18019736283949719 0 0.224700362040408 0.22206622194729711 0 0.26429849586623999 0.19346700179430079 0 0.224700362040408 0.22206622194729711 0 0.25195515620380449 0.25883339815888678 0 0.21049769590865089 0.26857363548218488 0 0.17933913398461551 0.2350063570234002 0 0.224700362040408 0.22206622194729711 0 0.21049769590865089 0.26857363548218488 0 0.184418230509967 0.038773194583122873 0 0.14999999999970359 0 0 0.14618258501891079 0.062070108745602003 0 0.184418230509967 0.038773194583122873 0 0.14618258501891079 0.062070108745602003 0 0.19922788606653311 0.085920220746880993 0 0.184418230509967 0.038773194583122873 0 0.14999999999970359 0 0 0.19999999999955789 0 0 0.10266856499169109 0.044518360900210059 0 0.14999999999970359 0 0 0.14618258501891079 0.062070108745602003 0 0.12372429750337779 0.095814237875728972 0 0.14618258501891079 0.062070108745602003 0 0.16141998738593399 0.10404039647458049 0 0.12372429750337779 0.095814237875728972 0 0.14332333627550789 0.14578431753966009 0 0.16141998738593399 0.10404039647458049 0 0.18652628422869419 0.14162325200928061 0 0.16141998738593399 0.10404039647458049 0 0.19922788606653311 0.085920220746880993 0 0.14618258501891079 0.062070108745602003 0 0.16141998738593399 0.10404039647458049 0 0.19922788606653311 0.085920220746880993 0 0.18652628422869419 0.14162325200928061 0 0.22985637510995899 0.1298347970200906 0 0.19922788606653311 0.085920220746880993 0 0.22985637510995899 0.1298347970200906 0 0.19922788606653311 0.085920220746880993 0 0.24218496799700481 0.089025544070598317 0 0.22985637510995899 0.1298347970200906 0 0.24218496799700481 0.089025544070598317 0 0.27474541102162192 0.11822029332053539 0 0.19922788606653311 0.085920220746880993 0 0.24218496799700481 0.089025544070598317 0 0.22668068146512929 0.045875643423131329 0 0.24218496799700481 0.089025544070598317 0 0.22668068146512929 0.045875643423131329 0 0.27499999999933927 0.060310814194988557 0 0.184418230509967 0.038773194583122873 0 0.19922788606653311 0.085920220746880993 0 0.22668068146512929 0.045875643423131329 0 0.184418230509967 0.038773194583122873 0 0.22668068146512929 0.045875643423131329 0 0.19999999999955789 0 0 0.22668068146512929 0.045875643423131329 0 0.19999999999955789 0 0 0.24999999999941211 0 0 0.24999999999941211 0 0 0.27499999999933927 0.060310814194988557 0 0.29999999999926641 0 0 0.22668068146512929 0.045875643423131329 0 0.24999999999941211 0 0 0.27499999999933927 0.060310814194988557 0 0.27499999999933927 0.060310814194988557 0 0.29999999999926641 0 0 0.32541448401678508 0.046215317981507749 0 0.29999999999926641 0 0 0.32541448401678508 0.046215317981507749 0 0.34999999999912063 0 0 0.32541448401678508 0.046215317981507749 0 0.3615861437013822 0.03582617922508851 0 0.35312867752657662 0.084946736076730367 0 0.3615861437013822 0.03582617922508851 0 0.35312867752657662 0.084946736076730367 0 0.39591832466117061 0.056982757562006353 0 0.32541448401678508 0.046215317981507749 0 0.3615861437013822 0.03582617922508851 0 0.34999999999912063 0 0 0.3615861437013822 0.03582617922508851 0 0.34999999999912063 0 0 0.3999999999989749 0 0 0.35312867752657662 0.084946736076730367 0 0.36246644853392812 0.1399454205365751 0 0.39823268594401579 0.1116623613130045 0 0.35312867752657662 0.084946736076730367 0 0.32215584939770009 0.1218492143506909 0 0.36246644853392812 0.1399454205365751 0 0.32541448401678508 0.046215317981507749 0 0.35312867752657662 0.084946736076730367 0 0.3096713403101819 0.085471541595262421 0 0.35312867752657662 0.084946736076730367 0 0.32215584939770009 0.1218492143506909 0 0.3096713403101819 0.085471541595262421 0 0.32215584939770009 0.1218492143506909 0 0.3096713403101819 0.085471541595262421 0 0.27474541102162192 0.11822029332053539 0 0.27499999999933927 0.060310814194988557 0 0.32541448401678508 0.046215317981507749 0 0.3096713403101819 0.085471541595262421 0 0.27499999999933927 0.060310814194988557 0 0.3096713403101819 0.085471541595262421 0 0.27474541102162192 0.11822029332053539 0 0.24218496799700481 0.089025544070598317 0 0.27499999999933927 0.060310814194988557 0 0.27474541102162192 0.11822029332053539 0 0.22985637510995899 0.1298347970200906 0 0.27474541102162192 0.11822029332053539 0 0.25557216766470708 0.15874861286892261 0 0.27474541102162192 0.11822029332053539 0 0.25557216766470708 0.15874861286892261 0 0.29336099386129338 0.15892013001050981 0 0.25557216766470708 0.15874861286892261 0 0.29336099386129338 0.15892013001050981 0 0.26429849586623999 0.19346700179430079 0 0.29336099386129338 0.15892013001050981 0 0.31255190597181792 0.19850845631528771 0 0.33084213324567391 0.16272720141332131 0 0.29336099386129338 0.15892013001050981 0 0.26429849586623999 0.19346700179430079 0 0.31255190597181792 0.19850845631528771 0 0.32215584939770009 0.1218492143506909 0 0.27474541102162192 0.11822029332053539 0 0.29336099386129338 0.15892013001050981 0 0.224700362040408 0.22206622194729711 0 0.28040350263641872 0.23054717217092141 0 0.25195515620380449 0.25883339815888678 0 0.224700362040408 0.22206622194729711 0 0.28040350263641872 0.23054717217092141 0 0.26429849586623999 0.19346700179430079 0 0.28040350263641872 0.23054717217092141 0 0.26429849586623999 0.19346700179430079 0 0.31255190597181792 0.19850845631528771 0 0.28040350263641872 0.23054717217092141 0 0.33758650185219202 0.23837101504325639 0 0.29132859388405002 0.27203693976649962 0 0.28040350263641872 0.23054717217092141 0 0.33758650185219202 0.23837101504325639 0 0.31255190597181792 0.19850845631528771 0 0.33758650185219202 0.23837101504325639 0 0.31255190597181792 0.19850845631528771 0 0.3572130504031617 0.1874703368446563 0 0.33758650185219202 0.23837101504325639 0 0.3572130504031617 0.1874703368446563 0 0.38831533174504851 0.2189834941785925 0 0.33758650185219202 0.23837101504325639 0 0.38831533174504851 0.2189834941785925 0 0.3786248352540974 0.27082301512024259 0 0.32215584939770009 0.1218492143506909 0 0.29336099386129338 0.15892013001050981 0 0.33084213324567391 0.16272720141332131 0 0.32215584939770009 0.1218492143506909 0 0.33084213324567391 0.16272720141332131 0 0.36246644853392812 0.1399454205365751 0 0.31255190597181792 0.19850845631528771 0 0.33084213324567391 0.16272720141332131 0 0.3572130504031617 0.1874703368446563 0 0.3572130504031617 0.1874703368446563 0 0.36246644853392812 0.1399454205365751 0 0.39801143831225599 0.16651381068160659 0 0.33084213324567391 0.16272720141332131 0 0.3572130504031617 0.1874703368446563 0 0.36246644853392812 0.1399454205365751 0 0.36246644853392812 0.1399454205365751 0 0.39801143831225599 0.16651381068160659 0 0.39823268594401579 0.1116623613130045 0 0.39801143831225599 0.16651381068160659 0 0.42905200079338551 0.19982395548231649 0 0.44288491854585582 0.14116182884956319 0 0.39801143831225599 0.16651381068160659 0 0.44288491854585582 0.14116182884956319 0 0.39823268594401579 0.1116623613130045 0 0.38831533174504851 0.2189834941785925 0 0.42377727103934271 0.25099357235810238 0 0.3786248352540974 0.27082301512024259 0 0.3572130504031617 0.1874703368446563 0 0.39801143831225599 0.16651381068160659 0 0.38831533174504851 0.2189834941785925 0 0.39801143831225599 0.16651381068160659 0 0.38831533174504851 0.2189834941785925 0 0.42905200079338551 0.19982395548231649 0 0.38831533174504851 0.2189834941785925 0 0.42905200079338551 0.19982395548231649 0 0.42377727103934271 0.25099357235810238 0 0.42905200079338551 0.19982395548231649 0 0.46429753744194407 0.22870891180733599 0 0.42377727103934271 0.25099357235810238 0 0.42905200079338551 0.19982395548231649 0 0.46429753744194407 0.22870891180733599 0 0.47357141910802508 0.1873585799078378 0 0.47357141910802508 0.1873585799078378 0 0.51729576145820033 0.1683240575987815 0 0.50760557329222289 0.20700468884612061 0 0.46429753744194407 0.22870891180733599 0 0.47357141910802508 0.1873585799078378 0 0.50760557329222289 0.20700468884612061 0 0.46429753744194407 0.22870891180733599 0 0.49695729691142171 0.25014895411178018 0 0.50760557329222289 0.20700468884612061 0 0.44288491854585582 0.14116182884956319 0 0.47357141910802508 0.1873585799078378 0 0.48466639505193998 0.1421439844745814 0 0.42905200079338551 0.19982395548231649 0 0.44288491854585582 0.14116182884956319 0 0.47357141910802508 0.1873585799078378 0 0.47357141910802508 0.1873585799078378 0 0.48466639505193998 0.1421439844745814 0 0.51729576145820033 0.1683240575987815 0 0.44288491854585582 0.14116182884956319 0 0.48466639505193998 0.1421439844745814 0 0.47881186583059909 0.093591717165689425 0 0.48466639505193998 0.1421439844745814 0 0.47881186583059909 0.093591717165689425 0 0.51076801031701946 0.1202837388510348 0 0.44288491854585582 0.14116182884956319 0 0.47881186583059909 0.093591717165689425 0 0.43698630808430822 0.080423614171545449 0 0.47881186583059909 0.093591717165689425 0 0.47040171442036788 0.044141676406503738 0 0.43698630808430822 0.080423614171545449 0 0.47881186583059909 0.093591717165689425 0 0.47040171442036788 0.044141676406503738 0 0.52375890611712683 0.059318771819432882 0 0.47040171442036788 0.044141676406503738 0 0.49999999999869432 0 0 0.52375890611712683 0.059318771819432882 0 0.47040171442036788 0.044141676406503738 0 0.49999999999869432 0 0 0.44999999999882923 0 0 0.47040171442036788 0.044141676406503738 0 0.44999999999882923 0 0 0.4320097814748517 0.037406712692169303 0 0.47040171442036788 0.044141676406503738 0 0.4320097814748517 0.037406712692169303 0 0.43698630808430822 0.080423614171545449 0 0.4320097814748517 0.037406712692169303 0 0.3999999999989749 0 0 0.39591832466117061 0.056982757562006353 0 0.4320097814748517 0.037406712692169303 0 0.39591832466117061 0.056982757562006353 0 0.43698630808430822 0.080423614171545449 0 0.44999999999882923 0 0 0.4320097814748517 0.037406712692169303 0 0.3999999999989749 0 0 0.3615861437013822 0.03582617922508851 0 0.3999999999989749 0 0 0.39591832466117061 0.056982757562006353 0 0.35312867752657662 0.084946736076730367 0 0.39591832466117061 0.056982757562006353 0 0.39823268594401579 0.1116623613130045 0 0.44288491854585582 0.14116182884956319 0 0.39823268594401579 0.1116623613130045 0 0.43698630808430822 0.080423614171545449 0 0.39591832466117061 0.056982757562006353 0 0.39823268594401579 0.1116623613130045 0 0.43698630808430822 0.080423614171545449 0 0.42161023666869668 0.39493916313643851 0 0.38707855792647411 0.42299362914874578 0 0.43249999999999988 0.43937499999999979 0 0.42161023666869668 0.39493916313643851 0 0.38083244760691543 0.38531983672244652 0 0.38707855792647411 0.42299362914874578 0 0.42161023666869668 0.39493916313643851 0 0.38083244760691543 0.38531983672244652 0 0.40076539126862748 0.34589349467022118 0 0.38707855792647411 0.42299362914874578 0 0.3908716102680424 0.47010282357248828 0 0.43249999999999988 0.43937499999999979 0 0.3908716102680424 0.47010282357248828 0 0.43507373378304309 0.49699695397193322 0 0.38244435121258652 0.51653317813019495 0 0.3908716102680424 0.47010282357248828 0 0.43507373378304309 0.49699695397193322 0 0.43249999999999988 0.43937499999999979 0 0.43507373378304309 0.49699695397193322 0 0.43249999999999988 0.43937499999999979 0 0.46111841286828259 0.46690301029591341 0 0.43249999999999988 0.43937499999999979 0 0.46111841286828259 0.46690301029591341 0 0.48858720058566618 0.43964267759203868 0 0.43507373378304309 0.49699695397193322 0 0.46111841286828259 0.46690301029591341 0 0.49102375406324739 0.49123754822244059 0 0.46111841286828259 0.46690301029591341 0 0.49102375406324739 0.49123754822244059 0 0.48858720058566618 0.43964267759203868 0 0.48858720058566618 0.43964267759203868 0 0.46655310992796922 0.39650496622958609 0 0.52289427570932567 0.3932284363388488 0 0.43249999999999988 0.43937499999999979 0 0.48858720058566618 0.43964267759203868 0 0.46655310992796922 0.39650496622958609 0 0.42161023666869668 0.39493916313643851 0 0.43249999999999988 0.43937499999999979 0 0.46655310992796922 0.39650496622958609 0 0.42161023666869668 0.39493916313643851 0 0.46655310992796922 0.39650496622958609 0 0.4409427642593301 0.35743108089689513 0 0.46655310992796922 0.39650496622958609 0 0.49077833859261139 0.35229981449445641 0 0.52289427570932567 0.3932284363388488 0 0.49077833859261139 0.35229981449445641 0 0.46226845272279993 0.31901800744800313 0 0.5 0.29999999999999999 0 0.49077833859261139 0.35229981449445641 0 0.46226845272279993 0.31901800744800313 0 0.4409427642593301 0.35743108089689513 0 0.46226845272279993 0.31901800744800313 0 0.4409427642593301 0.35743108089689513 0 0.41914690343363781 0.30688979866601612 0 0.46655310992796922 0.39650496622958609 0 0.49077833859261139 0.35229981449445641 0 0.4409427642593301 0.35743108089689513 0 0.49695729691142171 0.25014895411178018 0 0.4604742573284204 0.27846934318264788 0 0.5 0.29999999999999999 0 0.46429753744194407 0.22870891180733599 0 0.49695729691142171 0.25014895411178018 0 0.4604742573284204 0.27846934318264788 0 0.46226845272279993 0.31901800744800313 0 0.4604742573284204 0.27846934318264788 0 0.5 0.29999999999999999 0 0.46226845272279993 0.31901800744800313 0 0.4604742573284204 0.27846934318264788 0 0.41914690343363781 0.30688979866601612 0 0.46429753744194407 0.22870891180733599 0 0.4604742573284204 0.27846934318264788 0 0.42377727103934271 0.25099357235810238 0 0.4604742573284204 0.27846934318264788 0 0.42377727103934271 0.25099357235810238 0 0.41914690343363781 0.30688979866601612 0 0.42377727103934271 0.25099357235810238 0 0.41914690343363781 0.30688979866601612 0 0.3786248352540974 0.27082301512024259 0 0.41914690343363781 0.30688979866601612 0 0.3786248352540974 0.27082301512024259 0 0.36575549820117997 0.31677992835137742 0 0.42161023666869668 0.39493916313643851 0 0.4409427642593301 0.35743108089689513 0 0.40076539126862748 0.34589349467022118 0 0.4409427642593301 0.35743108089689513 0 0.41914690343363781 0.30688979866601612 0 0.40076539126862748 0.34589349467022118 0 0.41914690343363781 0.30688979866601612 0 0.40076539126862748 0.34589349467022118 0 0.36575549820117997 0.31677992835137742 0 0.40076539126862748 0.34589349467022118 0 0.36575549820117997 0.31677992835137742 0 0.33277555741076909 0.36432196682010132 0 0.38083244760691543 0.38531983672244652 0 0.40076539126862748 0.34589349467022118 0 0.33277555741076909 0.36432196682010132 0 0.36575549820117997 0.31677992835137742 0 0.32752639306529541 0.32610012995269699 0 0.33277555741076909 0.36432196682010132 0 0.32752639306529541 0.32610012995269699 0 0.33277555741076909 0.36432196682010132 0 0.29644548887253103 0.34914008784168082 0 0.33758650185219202 0.23837101504325639 0 0.3786248352540974 0.27082301512024259 0 0.33402499257867951 0.28911035184473982 0 0.3786248352540974 0.27082301512024259 0 0.36575549820117997 0.31677992835137742 0 0.33402499257867951 0.28911035184473982 0 0.36575549820117997 0.31677992835137742 0 0.32752639306529541 0.32610012995269699 0 0.33402499257867951 0.28911035184473982 0 0.32752639306529541 0.32610012995269699 0 0.33402499257867951 0.28911035184473982 0 0.29348325746214782 0.31350119524708198 0 0.33758650185219202 0.23837101504325639 0 0.33402499257867951 0.28911035184473982 0 0.29132859388405002 0.27203693976649962 0 0.33402499257867951 0.28911035184473982 0 0.29132859388405002 0.27203693976649962 0 0.29348325746214782 0.31350119524708198 0 0.29132859388405002 0.27203693976649962 0 0.29348325746214782 0.31350119524708198 0 0.24432083401701241 0.3006253385567515 0 0.29132859388405002 0.27203693976649962 0 0.25195515620380449 0.25883339815888678 0 0.24432083401701241 0.3006253385567515 0 0.28040350263641872 0.23054717217092141 0 0.29132859388405002 0.27203693976649962 0 0.25195515620380449 0.25883339815888678 0 0.33277555741076909 0.36432196682010132 0 0.29644548887253103 0.34914008784168082 0 0.27866744612395528 0.38416094670951489 0 0.32752639306529541 0.32610012995269699 0 0.29644548887253103 0.34914008784168082 0 0.29348325746214782 0.31350119524708198 0 0.29644548887253103 0.34914008784168082 0 0.29348325746214782 0.31350119524708198 0 0.25966125648670141 0.34351016742083729 0 0.29348325746214782 0.31350119524708198 0 0.25966125648670141 0.34351016742083729 0 0.24432083401701241 0.3006253385567515 0 0.29644548887253103 0.34914008784168082 0 0.25966125648670141 0.34351016742083729 0 0.27866744612395528 0.38416094670951489 0 0.25966125648670141 0.34351016742083729 0 0.27866744612395528 0.38416094670951489 0 0.22033343844674469 0.36963382230740238 0 0.27866744612395528 0.38416094670951489 0 0.29124338931648802 0.43334555462578611 0 0.24049127783545701 0.41270748208749802 0 0.29124338931648802 0.43334555462578611 0 0.25982634974572738 0.46097799597715272 0 0.24049127783545701 0.41270748208749802 0 0.27866744612395528 0.38416094670951489 0 0.29124338931648802 0.43334555462578611 0 0.31778888742534622 0.40581751814196781 0 0.33277555741076909 0.36432196682010132 0 0.27866744612395528 0.38416094670951489 0 0.31778888742534622 0.40581751814196781 0 0.33277555741076909 0.36432196682010132 0 0.31778888742534622 0.40581751814196781 0 0.35221190152536241 0.40457127605439203 0 0.31778888742534622 0.40581751814196781 0 0.35221190152536241 0.40457127605439203 0 0.34258405725730701 0.4444034294386992 0 0.29124338931648802 0.43334555462578611 0 0.31778888742534622 0.40581751814196781 0 0.34258405725730701 0.4444034294386992 0 0.38707855792647411 0.42299362914874578 0 0.35221190152536241 0.40457127605439203 0 0.34258405725730701 0.4444034294386992 0 0.38083244760691543 0.38531983672244652 0 0.38707855792647411 0.42299362914874578 0 0.35221190152536241 0.40457127605439203 0 0.38083244760691543 0.38531983672244652 0 0.33277555741076909 0.36432196682010132 0 0.35221190152536241 0.40457127605439203 0 0.3908716102680424 0.47010282357248828 0 0.35024835142131061 0.48654922671676981 0 0.38244435121258652 0.51653317813019495 0 0.3908716102680424 0.47010282357248828 0 0.35024835142131061 0.48654922671676981 0 0.34258405725730701 0.4444034294386992 0 0.38707855792647411 0.42299362914874578 0 0.3908716102680424 0.47010282357248828 0 0.34258405725730701 0.4444034294386992 0 0.29124338931648802 0.43334555462578611 0 0.34258405725730701 0.4444034294386992 0 0.31068898841644388 0.47541502461811092 0 0.35024835142131061 0.48654922671676981 0 0.31068898841644388 0.47541502461811092 0 0.33190227185843768 0.52715113583864037 0 0.35024835142131061 0.48654922671676981 0 0.34258405725730701 0.4444034294386992 0 0.31068898841644388 0.47541502461811092 0 0.31068898841644388 0.47541502461811092 0 0.25982634974572738 0.46097799597715272 0 0.28307294598219601 0.50789252727458634 0 0.29124338931648802 0.43334555462578611 0 0.31068898841644388 0.47541502461811092 0 0.25982634974572738 0.46097799597715272 0 0.25982634974572738 0.46097799597715272 0 0.23975172658309729 0.49475499200540818 0 0.28307294598219601 0.50789252727458634 0 0.23975172658309729 0.49475499200540818 0 0.19604738184454831 0.47787523520405789 0 0.22278230690790279 0.44824268025881547 0 0.19604738184454831 0.47787523520405789 0 0.22278230690790279 0.44824268025881547 0 0.191953871957803 0.42546416763755879 0 0.25982634974572738 0.46097799597715272 0 0.22278230690790279 0.44824268025881547 0 0.24049127783545701 0.41270748208749802 0 0.25982634974572738 0.46097799597715272 0 0.23975172658309729 0.49475499200540818 0 0.22278230690790279 0.44824268025881547 0 0.27866744612395528 0.38416094670951489 0 0.24049127783545701 0.41270748208749802 0 0.22033343844674469 0.36963382230740238 0 0.191953871957803 0.42546416763755879 0 0.1650278706801647 0.38791388161335733 0 0.22033343844674469 0.36963382230740238 0 0.24049127783545701 0.41270748208749802 0 0.191953871957803 0.42546416763755879 0 0.22033343844674469 0.36963382230740238 0 0.22278230690790279 0.44824268025881547 0 0.24049127783545701 0.41270748208749802 0 0.191953871957803 0.42546416763755879 0 0.191953871957803 0.42546416763755879 0 0.13773355295499351 0.42497777642586831 0 0.15801167086041079 0.46008690540259539 0 0.191953871957803 0.42546416763755879 0 0.1650278706801647 0.38791388161335733 0 0.13773355295499351 0.42497777642586831 0 0.1650278706801647 0.38791388161335733 0 0.13773355295499351 0.42497777642586831 0 0.1117088112799664 0.38831403004970022 0 0.13773355295499351 0.42497777642586831 0 0.15801167086041079 0.46008690540259539 0 0.113541300460994 0.46208784312094731 0 0.15801167086041079 0.46008690540259539 0 0.113541300460994 0.46208784312094731 0 0.1216098864341134 0.50637075089503902 0 0.15801167086041079 0.46008690540259539 0 0.1216098864341134 0.50637075089503902 0 0.16618607197337229 0.50652878253548905 0 0.19604738184454831 0.47787523520405789 0 0.15801167086041079 0.46008690540259539 0 0.16618607197337229 0.50652878253548905 0 0.19604738184454831 0.47787523520405789 0 0.191953871957803 0.42546416763755879 0 0.15801167086041079 0.46008690540259539 0 0.25195515620380449 0.25883339815888678 0 0.21049769590865089 0.26857363548218488 0 0.24432083401701241 0.3006253385567515 0 0.21049769590865089 0.26857363548218488 0 0.24432083401701241 0.3006253385567515 0 0.19670163708476801 0.31472518408333222 0 0.21049769590865089 0.26857363548218488 0 0.19670163708476801 0.31472518408333222 0 0.168349569971391 0.28054490850913671 0 0.19670163708476801 0.31472518408333222 0 0.22615676742807109 0.33458786033114157 0 0.18434624290945251 0.35208838264196463 0 0.24432083401701241 0.3006253385567515 0 0.19670163708476801 0.31472518408333222 0 0.22615676742807109 0.33458786033114157 0 0.25966125648670141 0.34351016742083729 0 0.24432083401701241 0.3006253385567515 0 0.22615676742807109 0.33458786033114157 0 0.25966125648670141 0.34351016742083729 0 0.22615676742807109 0.33458786033114157 0 0.22033343844674469 0.36963382230740238 0 0.22615676742807109 0.33458786033114157 0 0.22033343844674469 0.36963382230740238 0 0.18434624290945251 0.35208838264196463 0 0.1650278706801647 0.38791388161335733 0 0.22033343844674469 0.36963382230740238 0 0.18434624290945251 0.35208838264196463 0 0.1650278706801647 0.38791388161335733 0 0.18434624290945251 0.35208838264196463 0 0.14223753364722069 0.3341983344262433 0 0.1650278706801647 0.38791388161335733 0 0.14223753364722069 0.3341983344262433 0 0.1117088112799664 0.38831403004970022 0 0.19670163708476801 0.31472518408333222 0 0.18434624290945251 0.35208838264196463 0 0.14223753364722069 0.3341983344262433 0 0.19670163708476801 0.31472518408333222 0 0.14223753364722069 0.3341983344262433 0 0.168349569971391 0.28054490850913671 0 0.14223753364722069 0.3341983344262433 0 0.168349569971391 0.28054490850913671 0 0.1247745017231483 0.27198077544791172 0 0.14377654328998779 0.2442024734791064 0 0.168349569971391 0.28054490850913671 0 0.1247745017231483 0.27198077544791172 0 0.17933913398461551 0.2350063570234002 0 0.21049769590865089 0.26857363548218488 0 0.168349569971391 0.28054490850913671 0 0.17933913398461551 0.2350063570234002 0 0.14377654328998779 0.2442024734791064 0 0.168349569971391 0.28054490850913671 0 0.095326043202144745 0.24554465089224409 0 0.093851963071650835 0.30582068233324772 0 0.049706944316556423 0.27522722923869108 0 0.095326043202144745 0.24554465089224409 0 0.14377654328998779 0.2442024734791064 0 0.1247745017231483 0.27198077544791172 0 0.095326043202144745 0.24554465089224409 0 0.1247745017231483 0.27198077544791172 0 0.093851963071650835 0.30582068233324772 0 0.14223753364722069 0.3341983344262433 0 0.1247745017231483 0.27198077544791172 0 0.093851963071650835 0.30582068233324772 0 0.093851963071650835 0.30582068233324772 0 0.046389130980076937 0.32668781832131749 0 0.049706944316556423 0.27522722923869108 0 0.093851963071650835 0.30582068233324772 0 0.087545339447545459 0.35122518864182262 0 0.046389130980076937 0.32668781832131749 0 0.14223753364722069 0.3341983344262433 0 0.093851963071650835 0.30582068233324772 0 0.087545339447545459 0.35122518864182262 0 0.14223753364722069 0.3341983344262433 0 0.087545339447545459 0.35122518864182262 0 0.1117088112799664 0.38831403004970022 0 0.087545339447545459 0.35122518864182262 0 0.1117088112799664 0.38831403004970022 0 0.050583896093752537 0.38543522283434112 0 0.087545339447545459 0.35122518864182262 0 0.046389130980076937 0.32668781832131749 0 0.050583896093752537 0.38543522283434112 0 0 0.35000000000145642 0 0.046389130980076937 0.32668781832131749 0 0.050583896093752537 0.38543522283434112 0 0 0.35000000000145642 0 0.046389130980076937 0.32668781832131749 0 0 0.30000000000124832 0 0.046389130980076937 0.32668781832131749 0 0 0.30000000000124832 0 0.049706944316556423 0.27522722923869108 0 0 0.30000000000124832 0 0 0.25000000000104028 0 0.049706944316556423 0.27522722923869108 0 0.044081577119474857 0.2271058242433576 0 0 0.25000000000104028 0 0.049706944316556423 0.27522722923869108 0 0.068743045408989428 0.48853989837882689 0 0.113541300460994 0.46208784312094731 0 0.078358742472063481 0.43365249433908948 0 0.068743045408989428 0.48853989837882689 0 0.113541300460994 0.46208784312094731 0 0.1216098864341134 0.50637075089503902 0 0.13773355295499351 0.42497777642586831 0 0.113541300460994 0.46208784312094731 0 0.078358742472063481 0.43365249433908948 0 0.13773355295499351 0.42497777642586831 0 0.1117088112799664 0.38831403004970022 0 0.078358742472063481 0.43365249433908948 0 0.1117088112799664 0.38831403004970022 0 0.078358742472063481 0.43365249433908948 0 0.050583896093752537 0.38543522283434112 0 0.078358742472063481 0.43365249433908948 0 0.035463093262830522 0.42673416072819947 0 0.050583896093752537 0.38543522283434112 0 0 0.35000000000145642 0 0.050583896093752537 0.38543522283434112 0 0 0.40000000000166441 0 0.035463093262830522 0.42673416072819947 0 0.050583896093752537 0.38543522283434112 0 0 0.40000000000166441 0 0.035463093262830522 0.42673416072819947 0 0 0.40000000000166441 0 0 0.45000000000187229 0 0.035463093262830522 0.42673416072819947 0 0 0.45000000000187229 0 0.033550201249889847 0.46247875832467239 0 0.068743045408989428 0.48853989837882689 0 0.033550201249889847 0.46247875832467239 0 0 0.50000000000205869 0 0.068743045408989428 0.48853989837882689 0 0.078358742472063481 0.43365249433908948 0 0.033550201249889847 0.46247875832467239 0 0.078358742472063481 0.43365249433908948 0 0.035463093262830522 0.42673416072819947 0 0.033550201249889847 0.46247875832467239 0 0 0.45000000000187229 0 0.033550201249889847 0.46247875832467239 0 0 0.50000000000205869 0 0.068743045408989428 0.48853989837882689 0 0 0.50000000000205869 0 0.044576108720083309 0.53509043209532614 0 0 0.50000000000205869 0 0 0.55000000000173355 0 0.044576108720083309 0.53509043209532614 0 0 0.55000000000173355 0 0.044576108720083309 0.53509043209532614 0 0.034381862692950467 0.57372682250960894 0 0.044576108720083309 0.53509043209532614 0 0.077693244765132896 0.56932317963405099 0 0.034381862692950467 0.57372682250960894 0 0.068743045408989428 0.48853989837882689 0 0.044576108720083309 0.53509043209532614 0 0.085622222639554768 0.53333248912060549 0 0.068743045408989428 0.48853989837882689 0 0.085622222639554768 0.53333248912060549 0 0.1216098864341134 0.50637075089503902 0 0.044576108720083309 0.53509043209532614 0 0.085622222639554768 0.53333248912060549 0 0.077693244765132896 0.56932317963405099 0 0.085622222639554768 0.53333248912060549 0 0.1154888278694548 0.56733818459978413 0 0.077693244765132896 0.56932317963405099 0 0.085622222639554768 0.53333248912060549 0 0.1216098864341134 0.50637075089503902 0 0.1154888278694548 0.56733818459978413 0 0.1024350934457823 0.60772393977513839 0 0.1154888278694548 0.56733818459978413 0 0.077693244765132896 0.56932317963405099 0 0.1024350934457823 0.60772393977513839 0 0.050069554451969707 0.61308520079857043 0 0.086179601630648681 0.64647209519980475 0 0.1024350934457823 0.60772393977513839 0 0.077693244765132896 0.56932317963405099 0 0.050069554451969707 0.61308520079857043 0 0.077693244765132896 0.56932317963405099 0 0.050069554451969707 0.61308520079857043 0 0.034381862692950467 0.57372682250960894 0 0 0.55000000000173355 0 0.034381862692950467 0.57372682250960894 0 0 0.60000000000138687 0 0.050069554451969707 0.61308520079857043 0 0 0.60000000000138687 0 0 0.65000000000104008 0 0.050069554451969707 0.61308520079857043 0 0.034381862692950467 0.57372682250960894 0 0 0.60000000000138687 0 0 0.65000000000104008 0 0.046634677244967337 0.671418230738282 0 0 0.7000000000006934 0 0.050069554451969707 0.61308520079857043 0 0.046634677244967337 0.671418230738282 0 0.086179601630648681 0.64647209519980475 0 0.050069554451969707 0.61308520079857043 0 0 0.65000000000104008 0 0.046634677244967337 0.671418230738282 0 0 0.7000000000006934 0 0.049706944316475897 0.72477277076253799 0 0 0.75000000000034661 0 0.046634677244967337 0.671418230738282 0 0 0.7000000000006934 0 0.049706944316475897 0.72477277076253799 0 0.049706944316475897 0.72477277076253799 0 0 0.75000000000034661 0 0.04408157711937423 0.7728941757575627 0 0.049706944316475897 0.72477277076253799 0 0.1020579365089687 0.69352219419301997 0 0.090953281884486245 0.7564451946902494 0 0.1020579365089687 0.69352219419301997 0 0.1215415378367805 0.72939333680004137 0 0.090953281884486245 0.7564451946902494 0 0.046634677244967337 0.671418230738282 0 0.049706944316475897 0.72477277076253799 0 0.1020579365089687 0.69352219419301997 0 0.1215415378367805 0.72939333680004137 0 0.090953281884486245 0.7564451946902494 0 0.14335651144331049 0.75565258250209677 0 0.046634677244967337 0.671418230738282 0 0.1020579365089687 0.69352219419301997 0 0.086179601630648681 0.64647209519980475 0 0.1020579365089687 0.69352219419301997 0 0.086179601630648681 0.64647209519980475 0 0.1241190223511371 0.64391885572885044 0 0.1024350934457823 0.60772393977513839 0 0.086179601630648681 0.64647209519980475 0 0.1241190223511371 0.64391885572885044 0 0.1020579365089687 0.69352219419301997 0 0.1241190223511371 0.64391885572885044 0 0.16500388252850301 0.66612077714085194 0 0.1241190223511371 0.64391885572885044 0 0.16500388252850301 0.66612077714085194 0 0.15720202157091859 0.60665697304410315 0 0.16500388252850301 0.66612077714085194 0 0.19914261668318661 0.62286739485272158 0 0.15720202157091859 0.60665697304410315 0 0.1020579365089687 0.69352219419301997 0 0.16500388252850301 0.66612077714085194 0 0.15332765547575641 0.71200081858233666 0 0.1215415378367805 0.72939333680004137 0 0.15332765547575641 0.71200081858233666 0 0.14335651144331049 0.75565258250209677 0 0.1020579365089687 0.69352219419301997 0 0.1215415378367805 0.72939333680004137 0 0.15332765547575641 0.71200081858233666 0 0.16500388252850301 0.66612077714085194 0 0.15332765547575641 0.71200081858233666 0 0.19068556247388771 0.71028988922845504 0 0.15332765547575641 0.71200081858233666 0 0.14335651144331049 0.75565258250209677 0 0.18269480424590959 0.75905448272264375 0 0.15332765547575641 0.71200081858233666 0 0.19068556247388771 0.71028988922845504 0 0.18269480424590959 0.75905448272264375 0 0.19068556247388771 0.71028988922845504 0 0.2248999640082178 0.72584299459689172 0 0.18269480424590959 0.75905448272264375 0 0.19068556247388771 0.71028988922845504 0 0.2248999640082178 0.72584299459689172 0 0.2236846579037573 0.67380363126050236 0 0.2248999640082178 0.72584299459689172 0 0.2236846579037573 0.67380363126050236 0 0.26439878998046262 0.7048065392091396 0 0.2248999640082178 0.72584299459689172 0 0.22556077506376701 0.77837424984191617 0 0.25676291524611189 0.7436741304886243 0 0.2248999640082178 0.72584299459689172 0 0.25676291524611189 0.7436741304886243 0 0.26439878998046262 0.7048065392091396 0 0.16500388252850301 0.66612077714085194 0 0.2236846579037573 0.67380363126050236 0 0.19914261668318661 0.62286739485272158 0 0.16500388252850301 0.66612077714085194 0 0.19068556247388771 0.71028988922845504 0 0.2236846579037573 0.67380363126050236 0 0.2236846579037573 0.67380363126050236 0 0.2459498854893499 0.63248470766216769 0 0.19914261668318661 0.62286739485272158 0 0.2236846579037573 0.67380363126050236 0 0.2459498854893499 0.63248470766216769 0 0.27820712747429932 0.65530134213254643 0 0.2459498854893499 0.63248470766216769 0 0.19914261668318661 0.62286739485272158 0 0.22549374774072969 0.58452645269293457 0 0.2459498854893499 0.63248470766216769 0 0.22549374774072969 0.58452645269293457 0 0.26573297623774761 0.59828298563722948 0 0.19914261668318661 0.62286739485272158 0 0.22549374774072969 0.58452645269293457 0 0.18381867841758909 0.57774125163628387 0 0.22549374774072969 0.58452645269293457 0 0.20050006573841939 0.53248514016039872 0 0.18381867841758909 0.57774125163628387 0 0.22549374774072969 0.58452645269293457 0 0.25115337790845271 0.54719303014923271 0 0.26573297623774761 0.59828298563722948 0 0.22549374774072969 0.58452645269293457 0 0.20050006573841939 0.53248514016039872 0 0.25115337790845271 0.54719303014923271 0 0.23975172658309729 0.49475499200540818 0 0.20050006573841939 0.53248514016039872 0 0.25115337790845271 0.54719303014923271 0 0.19604738184454831 0.47787523520405789 0 0.20050006573841939 0.53248514016039872 0 0.16618607197337229 0.50652878253548905 0 0.23975172658309729 0.49475499200540818 0 0.19604738184454831 0.47787523520405789 0 0.20050006573841939 0.53248514016039872 0 0.20050006573841939 0.53248514016039872 0 0.14934928745814749 0.55042914607228977 0 0.18381867841758909 0.57774125163628387 0 0.20050006573841939 0.53248514016039872 0 0.16618607197337229 0.50652878253548905 0 0.14934928745814749 0.55042914607228977 0 0.1216098864341134 0.50637075089503902 0 0.16618607197337229 0.50652878253548905 0 0.14934928745814749 0.55042914607228977 0 0.1216098864341134 0.50637075089503902 0 0.1154888278694548 0.56733818459978413 0 0.14934928745814749 0.55042914607228977 0 0.1154888278694548 0.56733818459978413 0 0.14934928745814749 0.55042914607228977 0 0.15720202157091859 0.60665697304410315 0 0.1024350934457823 0.60772393977513839 0 0.1154888278694548 0.56733818459978413 0 0.15720202157091859 0.60665697304410315 0 0.1024350934457823 0.60772393977513839 0 0.1241190223511371 0.64391885572885044 0 0.15720202157091859 0.60665697304410315 0 0.19914261668318661 0.62286739485272158 0 0.15720202157091859 0.60665697304410315 0 0.18381867841758909 0.57774125163628387 0 0.14934928745814749 0.55042914607228977 0 0.15720202157091859 0.60665697304410315 0 0.18381867841758909 0.57774125163628387 0 0.10000000000041601 1 0 0.10266856499240549 0.95548163909968886 0 0.15000000000062411 1 0 0.10266856499240549 0.95548163909968886 0 0.053064897599294662 0.95186845269532028 0 0.083411279318375747 0.91030024466934134 0 0.10000000000041601 1 0 0.050000000000207989 1 0 0.053064897599294662 0.95186845269532028 0 0.10000000000041601 1 0 0.10266856499240549 0.95548163909968886 0 0.053064897599294662 0.95186845269532028 0 0.050000000000207989 1 0 0.025766224399875661 0.97546711317377799 0 0.053064897599294662 0.95186845269532028 0 0.050000000000207989 1 0 0 1 0 0.025766224399875661 0.97546711317377799 0 0 1 0 0.025766224399875661 0.97546711317377799 0 0 0.94999999999979179 0 0.025766224399875661 0.97546711317377799 0 0 0.94999999999979179 0 0.053064897599294662 0.95186845269532028 0 0 0.94999999999979179 0 0.053064897599294662 0.95186845269532028 0 0.0443105827531413 0.89858748162559932 0 0.053064897599294662 0.95186845269532028 0 0.0443105827531413 0.89858748162559932 0 0.083411279318375747 0.91030024466934134 0 0 0.94999999999979179 0 0 0.89999999999958358 0 0.0443105827531413 0.89858748162559932 0 0 0.89999999999958358 0 0.0443105827531413 0.89858748162559932 0 0 0.84999999999965292 0 0.0443105827531413 0.89858748162559932 0 0.083411279318375747 0.91030024466934134 0 0.065374659239661639 0.8551091961254178 0 0.083411279318375747 0.91030024466934134 0 0.10562472963403439 0.87143394428979881 0 0.065374659239661639 0.8551091961254178 0 0.10266856499240549 0.95548163909968886 0 0.083411279318375747 0.91030024466934134 0 0.1241151115713819 0.9045666525468371 0 0.10266856499240549 0.95548163909968886 0 0.1241151115713819 0.9045666525468371 0 0.14617343800780541 0.93808063414349496 0 0.1241151115713819 0.9045666525468371 0 0.10562472963403439 0.87143394428979881 0 0.14474682429600511 0.85524784522713515 0 0.083411279318375747 0.91030024466934134 0 0.1241151115713819 0.9045666525468371 0 0.10562472963403439 0.87143394428979881 0 0.10562472963403439 0.87143394428979881 0 0.1074251789111534 0.83564394292147814 0 0.14474682429600511 0.85524784522713515 0 0.1074251789111534 0.83564394292147814 0 0.065374659239661639 0.8551091961254178 0 0.083105206071452636 0.79992298667296435 0 0.10562472963403439 0.87143394428979881 0 0.1074251789111534 0.83564394292147814 0 0.065374659239661639 0.8551091961254178 0 0.065374659239661639 0.8551091961254178 0 0 0.84999999999965292 0 0.038512288486097702 0.8155852717111195 0 0.0443105827531413 0.89858748162559932 0 0.065374659239661639 0.8551091961254178 0 0 0.84999999999965292 0 0 0.84999999999965292 0 0.038512288486097702 0.8155852717111195 0 0 0.79999999999999982 0 0.065374659239661639 0.8551091961254178 0 0.038512288486097702 0.8155852717111195 0 0.083105206071452636 0.79992298667296435 0 0.038512288486097702 0.8155852717111195 0 0.04408157711937423 0.7728941757575627 0 0.083105206071452636 0.79992298667296435 0 0.038512288486097702 0.8155852717111195 0 0 0.79999999999999982 0 0.04408157711937423 0.7728941757575627 0 0 0.79999999999999982 0 0 0.75000000000034661 0 0.04408157711937423 0.7728941757575627 0 0.049706944316475897 0.72477277076253799 0 0.04408157711937423 0.7728941757575627 0 0.090953281884486245 0.7564451946902494 0 0.04408157711937423 0.7728941757575627 0 0.090953281884486245 0.7564451946902494 0 0.083105206071452636 0.79992298667296435 0 0.1074251789111534 0.83564394292147814 0 0.083105206071452636 0.79992298667296435 0 0.1382744753146134 0.79650574229207483 0 0.090953281884486245 0.7564451946902494 0 0.083105206071452636 0.79992298667296435 0 0.1382744753146134 0.79650574229207483 0 0.090953281884486245 0.7564451946902494 0 0.14335651144331049 0.75565258250209677 0 0.1382744753146134 0.79650574229207483 0 0.14335651144331049 0.75565258250209677 0 0.1382744753146134 0.79650574229207483 0 0.18269480424590959 0.75905448272264375 0 0.1382744753146134 0.79650574229207483 0 0.18269480424590959 0.75905448272264375 0 0.17777405986036951 0.81832336108265358 0 0.2248999640082178 0.72584299459689172 0 0.18269480424590959 0.75905448272264375 0 0.22556077506376701 0.77837424984191617 0 0.22556077506376701 0.77837424984191617 0 0.21858834311891909 0.81980263716112767 0 0.26104540868854792 0.81401944968719064 0 0.22556077506376701 0.77837424984191617 0 0.21858834311891909 0.81980263716112767 0 0.17777405986036951 0.81832336108265358 0 0.18269480424590959 0.75905448272264375 0 0.22556077506376701 0.77837424984191617 0 0.17777405986036951 0.81832336108265358 0 0.21858834311891909 0.81980263716112767 0 0.19741632902693801 0.86755867406447229 0 0.17777405986036951 0.81832336108265358 0 0.21858834311891909 0.81980263716112767 0 0.2401283238295133 0.85648409884788523 0 0.26104540868854792 0.81401944968719064 0 0.21858834311891909 0.81980263716112767 0 0.2401283238295133 0.85648409884788523 0 0.19741632902693801 0.86755867406447229 0 0.19741632902693801 0.86755867406447229 0 0.17777405986036951 0.81832336108265358 0 0.14474682429600511 0.85524784522713515 0 0.19741632902693801 0.86755867406447229 0 0.14474682429600511 0.85524784522713515 0 0.16206583317966519 0.89685560785156404 0 0.1382744753146134 0.79650574229207483 0 0.17777405986036951 0.81832336108265358 0 0.14474682429600511 0.85524784522713515 0 0.1074251789111534 0.83564394292147814 0 0.1382744753146134 0.79650574229207483 0 0.14474682429600511 0.85524784522713515 0 0.1241151115713819 0.9045666525468371 0 0.14474682429600511 0.85524784522713515 0 0.16206583317966519 0.89685560785156404 0 0.1241151115713819 0.9045666525468371 0 0.16206583317966519 0.89685560785156404 0 0.14617343800780541 0.93808063414349496 0 0.16206583317966519 0.89685560785156404 0 0.19901705110390991 0.9175543425573498 0 0.14617343800780541 0.93808063414349496 0 0.19741632902693801 0.86755867406447229 0 0.16206583317966519 0.89685560785156404 0 0.19901705110390991 0.9175543425573498 0 0.19741632902693801 0.86755867406447229 0 0.24536017905392571 0.90704567837671446 0 0.19901705110390991 0.9175543425573498 0 0.2401283238295133 0.85648409884788523 0 0.19741632902693801 0.86755867406447229 0 0.24536017905392571 0.90704567837671446 0 0.24536017905392571 0.90704567837671446 0 0.19901705110390991 0.9175543425573498 0 0.22850979588452081 0.95594428570238643 0 0.19901705110390991 0.9175543425573498 0 0.22850979588452081 0.95594428570238643 0 0.18474005699953849 0.96231585248064622 0 0.24536017905392571 0.90704567837671446 0 0.22850979588452081 0.95594428570238643 0 0.27609987656793722 0.94991445621608572 0 0.22850979588452081 0.95594428570238643 0 0.20000000000083221 1 0 0.25000000000104028 1 0 0.22850979588452081 0.95594428570238643 0 0.20000000000083221 1 0 0.18474005699953849 0.96231585248064622 0 0.20000000000083221 1 0 0.18474005699953849 0.96231585248064622 0 0.15000000000062411 1 0 0.19901705110390991 0.9175543425573498 0 0.18474005699953849 0.96231585248064622 0 0.14617343800780541 0.93808063414349496 0 0.18474005699953849 0.96231585248064622 0 0.14617343800780541 0.93808063414349496 0 0.15000000000062411 1 0 0.10266856499240549 0.95548163909968886 0 0.14617343800780541 0.93808063414349496 0 0.15000000000062411 1 0 0.35000000000145642 1 0 0.36184234618600131 0.96443954459096326 0 0.32544832635163229 0.95485394099568932 0 0.35000000000145642 1 0 0.36184234618600131 0.96443954459096326 0 0.40000000000166441 1 0 0.36184234618600131 0.96443954459096326 0 0.32544832635163229 0.95485394099568932 0 0.35752321586431363 0.9185439911803448 0 0.36184234618600131 0.96443954459096326 0 0.35752321586431363 0.9185439911803448 0 0.39641108128798319 0.94356127926187128 0 0.35000000000145642 1 0 0.32544832635163229 0.95485394099568932 0 0.30000000000124832 1 0 0.30000000000124832 1 0 0.25000000000104028 1 0 0.27609987656793722 0.94991445621608572 0 0.22850979588452081 0.95594428570238643 0 0.25000000000104028 1 0 0.27609987656793722 0.94991445621608572 0 0.32544832635163229 0.95485394099568932 0 0.30000000000124832 1 0 0.27609987656793722 0.94991445621608572 0 0.32544832635163229 0.95485394099568932 0 0.27609987656793722 0.94991445621608572 0 0.30864387279288652 0.89906554525974958 0 0.24536017905392571 0.90704567837671446 0 0.27270076654418179 0.87751467830216623 0 0.30864387279288652 0.89906554525974958 0 0.24536017905392571 0.90704567837671446 0 0.27609987656793722 0.94991445621608572 0 0.30864387279288652 0.89906554525974958 0 0.2401283238295133 0.85648409884788523 0 0.24536017905392571 0.90704567837671446 0 0.27270076654418179 0.87751467830216623 0 0.30864387279288652 0.89906554525974958 0 0.35752321586431363 0.9185439911803448 0 0.35864759629805099 0.87963482415279515 0 0.32544832635163229 0.95485394099568932 0 0.30864387279288652 0.89906554525974958 0 0.35752321586431363 0.9185439911803448 0 0.35752321586431363 0.9185439911803448 0 0.35864759629805099 0.87963482415279515 0 0.39767323751400468 0.89584229130535065 0 0.35864759629805099 0.87963482415279515 0 0.33403534827021109 0.84402799729020661 0 0.39536230704883951 0.84069429572832477 0 0.33403534827021109 0.84402799729020661 0 0.35642984951668422 0.80994399665655703 0 0.39536230704883951 0.84069429572832477 0 0.33403534827021109 0.84402799729020661 0 0.30857225866488791 0.81101973481716805 0 0.35642984951668422 0.80994399665655703 0 0.30864387279288652 0.89906554525974958 0 0.35864759629805099 0.87963482415279515 0 0.33403534827021109 0.84402799729020661 0 0.30864387279288652 0.89906554525974958 0 0.33403534827021109 0.84402799729020661 0 0.29209212897034281 0.84715728365233667 0 0.27270076654418179 0.87751467830216623 0 0.30864387279288652 0.89906554525974958 0 0.29209212897034281 0.84715728365233667 0 0.2401283238295133 0.85648409884788523 0 0.27270076654418179 0.87751467830216623 0 0.29209212897034281 0.84715728365233667 0 0.2401283238295133 0.85648409884788523 0 0.29209212897034281 0.84715728365233667 0 0.26104540868854792 0.81401944968719064 0 0.29209212897034281 0.84715728365233667 0 0.26104540868854792 0.81401944968719064 0 0.30857225866488791 0.81101973481716805 0 0.33403534827021109 0.84402799729020661 0 0.29209212897034281 0.84715728365233667 0 0.30857225866488791 0.81101973481716805 0 0.26104540868854792 0.81401944968719064 0 0.30857225866488791 0.81101973481716805 0 0.2792923945214143 0.77665808831789485 0 0.30857225866488791 0.81101973481716805 0 0.2792923945214143 0.77665808831789485 0 0.33123028043633618 0.77629643437932982 0 0.22556077506376701 0.77837424984191617 0 0.26104540868854792 0.81401944968719064 0 0.2792923945214143 0.77665808831789485 0 0.2792923945214143 0.77665808831789485 0 0.25676291524611189 0.7436741304886243 0 0.29904318922293632 0.74132814928635593 0 0.22556077506376701 0.77837424984191617 0 0.2792923945214143 0.77665808831789485 0 0.25676291524611189 0.7436741304886243 0 0.2792923945214143 0.77665808831789485 0 0.33123028043633618 0.77629643437932982 0 0.29904318922293632 0.74132814928635593 0 0.33123028043633618 0.77629643437932982 0 0.29904318922293632 0.74132814928635593 0 0.35415581127540569 0.73730480045900215 0 0.30857225866488791 0.81101973481716805 0 0.33123028043633618 0.77629643437932982 0 0.35642984951668422 0.80994399665655703 0 0.33123028043633618 0.77629643437932982 0 0.35642984951668422 0.80994399665655703 0 0.38586766253264881 0.78219501014812498 0 0.33123028043633618 0.77629643437932982 0 0.38586766253264881 0.78219501014812498 0 0.35415581127540569 0.73730480045900215 0 0.38586766253264881 0.78219501014812498 0 0.42676259796334498 0.76772545931379299 0 0.40326160981139969 0.73346192995102844 0 0.38586766253264881 0.78219501014812498 0 0.35415581127540569 0.73730480045900215 0 0.40326160981139969 0.73346192995102844 0 0.38586766253264881 0.78219501014812498 0 0.42609163930740518 0.80361684430568059 0 0.39536230704883951 0.84069429572832477 0 0.35642984951668422 0.80994399665655703 0 0.38586766253264881 0.78219501014812498 0 0.39536230704883951 0.84069429572832477 0 0.38586766253264881 0.78219501014812498 0 0.42609163930740518 0.80361684430568059 0 0.42676259796334498 0.76772545931379299 0 0.42676259796334498 0.76772545931379299 0 0.4656888918609538 0.78493261229743638 0 0.45582236402875981 0.73896743678908217 0 0.4656888918609538 0.78493261229743638 0 0.45582236402875981 0.73896743678908217 0 0.50945740445113552 0.75476055527778108 0 0.4656888918609538 0.78493261229743638 0 0.50731287292894423 0.78963574450233831 0 0.50945740445113552 0.75476055527778108 0 0.4656888918609538 0.78493261229743638 0 0.50627822638148745 0.8263979829520941 0 0.50731287292894423 0.78963574450233831 0 0.42609163930740518 0.80361684430568059 0 0.4656888918609538 0.78493261229743638 0 0.45677673713123867 0.84253684404072415 0 0.42609163930740518 0.80361684430568059 0 0.42676259796334498 0.76772545931379299 0 0.4656888918609538 0.78493261229743638 0 0.4656888918609538 0.78493261229743638 0 0.45677673713123867 0.84253684404072415 0 0.50627822638148745 0.8263979829520941 0 0.45677673713123867 0.84253684404072415 0 0.50202631463681879 0.87892870825713787 0 0.50627822638148745 0.8263979829520941 0 0.45677673713123867 0.84253684404072415 0 0.44003836461056539 0.88093474584252718 0 0.50202631463681879 0.87892870825713787 0 0.45677673713123867 0.84253684404072415 0 0.39536230704883951 0.84069429572832477 0 0.44003836461056539 0.88093474584252718 0 0.39536230704883951 0.84069429572832477 0 0.39767323751400468 0.89584229130535065 0 0.44003836461056539 0.88093474584252718 0 0.42609163930740518 0.80361684430568059 0 0.45677673713123867 0.84253684404072415 0 0.39536230704883951 0.84069429572832477 0 0.35864759629805099 0.87963482415279515 0 0.39536230704883951 0.84069429572832477 0 0.39767323751400468 0.89584229130535065 0 0.35752321586431363 0.9185439911803448 0 0.39767323751400468 0.89584229130535065 0 0.39641108128798319 0.94356127926187128 0 0.39767323751400468 0.89584229130535065 0 0.4367309254023824 0.92065556789053882 0 0.39641108128798319 0.94356127926187128 0 0.39767323751400468 0.89584229130535065 0 0.4367309254023824 0.92065556789053882 0 0.44003836461056539 0.88093474584252718 0 0.4367309254023824 0.92065556789053882 0 0.44003836461056539 0.88093474584252718 0 0.47401147028110507 0.91529957330468115 0 0.44003836461056539 0.88093474584252718 0 0.47401147028110507 0.91529957330468115 0 0.50202631463681879 0.87892870825713787 0 0.47401147028110507 0.91529957330468115 0 0.47135117303824892 0.95556877749289892 0 0.52122150208832174 0.94089974453840242 0 0.47401147028110507 0.91529957330468115 0 0.52122150208832174 0.94089974453840242 0 0.50202631463681879 0.87892870825713787 0 0.4367309254023824 0.92065556789053882 0 0.47401147028110507 0.91529957330468115 0 0.47135117303824892 0.95556877749289892 0 0.4367309254023824 0.92065556789053882 0 0.47135117303824892 0.95556877749289892 0 0.4308986359464303 0.96395712492906194 0 0.47135117303824892 0.95556877749289892 0 0.50000000000205869 1 0 0.52122150208832174 0.94089974453840242 0 0.47135117303824892 0.95556877749289892 0 0.45000000000187229 1 0 0.50000000000205869 1 0 0.47135117303824892 0.95556877749289892 0 0.45000000000187229 1 0 0.4308986359464303 0.96395712492906194 0 0.45000000000187229 1 0 0.4308986359464303 0.96395712492906194 0 0.40000000000166441 1 0 0.4308986359464303 0.96395712492906194 0 0.39641108128798319 0.94356127926187128 0 0.40000000000166441 1 0 0.4367309254023824 0.92065556789053882 0 0.4308986359464303 0.96395712492906194 0 0.39641108128798319 0.94356127926187128 0 0.36184234618600131 0.96443954459096326 0 0.39641108128798319 0.94356127926187128 0 0.40000000000166441 1 0 0.33122374654748771 0.57588941099433744 0 0.31502927232353312 0.6134992213375432 0 0.35765792684946668 0.6000687869219653 0 0.31502927232353312 0.6134992213375432 0 0.35765792684946668 0.6000687869219653 0 0.35864735590330371 0.63903383440414463 0 0.35765792684946668 0.6000687869219653 0 0.35864735590330371 0.63903383440414463 0 0.39743091024207589 0.6239520004230239 0 0.33122374654748771 0.57588941099433744 0 0.35765792684946668 0.6000687869219653 0 0.37272913873093971 0.56192925302619479 0 0.37272913873093971 0.56192925302619479 0 0.33190227185843768 0.52715113583864037 0 0.38244435121258652 0.51653317813019495 0 0.33122374654748771 0.57588941099433744 0 0.37272913873093971 0.56192925302619479 0 0.33190227185843768 0.52715113583864037 0 0.35024835142131061 0.48654922671676981 0 0.33190227185843768 0.52715113583864037 0 0.38244435121258652 0.51653317813019495 0 0.33122374654748771 0.57588941099433744 0 0.33190227185843768 0.52715113583864037 0 0.29110487519241501 0.56588143995431495 0 0.33190227185843768 0.52715113583864037 0 0.28307294598219601 0.50789252727458634 0 0.29110487519241501 0.56588143995431495 0 0.31068898841644388 0.47541502461811092 0 0.33190227185843768 0.52715113583864037 0 0.28307294598219601 0.50789252727458634 0 0.23975172658309729 0.49475499200540818 0 0.28307294598219601 0.50789252727458634 0 0.25115337790845271 0.54719303014923271 0 0.28307294598219601 0.50789252727458634 0 0.25115337790845271 0.54719303014923271 0 0.29110487519241501 0.56588143995431495 0 0.25115337790845271 0.54719303014923271 0 0.29110487519241501 0.56588143995431495 0 0.26573297623774761 0.59828298563722948 0 0.33122374654748771 0.57588941099433744 0 0.31502927232353312 0.6134992213375432 0 0.29110487519241501 0.56588143995431495 0 0.31502927232353312 0.6134992213375432 0 0.29110487519241501 0.56588143995431495 0 0.26573297623774761 0.59828298563722948 0 0.31502927232353312 0.6134992213375432 0 0.26573297623774761 0.59828298563722948 0 0.27820712747429932 0.65530134213254643 0 0.2459498854893499 0.63248470766216769 0 0.26573297623774761 0.59828298563722948 0 0.27820712747429932 0.65530134213254643 0 0.2236846579037573 0.67380363126050236 0 0.27820712747429932 0.65530134213254643 0 0.26439878998046262 0.7048065392091396 0 0.27820712747429932 0.65530134213254643 0 0.31378396441836959 0.70157213313026345 0 0.32263089806001177 0.66003674931826484 0 0.27820712747429932 0.65530134213254643 0 0.26439878998046262 0.7048065392091396 0 0.31378396441836959 0.70157213313026345 0 0.31502927232353312 0.6134992213375432 0 0.27820712747429932 0.65530134213254643 0 0.32263089806001177 0.66003674931826484 0 0.25676291524611189 0.7436741304886243 0 0.26439878998046262 0.7048065392091396 0 0.29904318922293632 0.74132814928635593 0 0.26439878998046262 0.7048065392091396 0 0.29904318922293632 0.74132814928635593 0 0.31378396441836959 0.70157213313026345 0 0.29904318922293632 0.74132814928635593 0 0.31378396441836959 0.70157213313026345 0 0.35415581127540569 0.73730480045900215 0 0.31378396441836959 0.70157213313026345 0 0.36622285152418499 0.69092437780804039 0 0.35415581127540569 0.73730480045900215 0 0.36622285152418499 0.69092437780804039 0 0.35415581127540569 0.73730480045900215 0 0.40326160981139969 0.73346192995102844 0 0.31502927232353312 0.6134992213375432 0 0.32263089806001177 0.66003674931826484 0 0.35864735590330371 0.63903383440414463 0 0.31378396441836959 0.70157213313026345 0 0.36622285152418499 0.69092437780804039 0 0.32263089806001177 0.66003674931826484 0 0.36622285152418499 0.69092437780804039 0 0.32263089806001177 0.66003674931826484 0 0.35864735590330371 0.63903383440414463 0 0.36622285152418499 0.69092437780804039 0 0.35864735590330371 0.63903383440414463 0 0.3977710372045391 0.65868194622830212 0 0.35864735590330371 0.63903383440414463 0 0.3977710372045391 0.65868194622830212 0 0.39743091024207589 0.6239520004230239 0 0.36622285152418499 0.69092437780804039 0 0.3977710372045391 0.65868194622830212 0 0.43323420005758778 0.6913544522562407 0 0.3977710372045391 0.65868194622830212 0 0.43323420005758778 0.6913544522562407 0 0.43846182030517877 0.64845797726506715 0 0.43846182030517877 0.64845797726506715 0 0.43545892161006339 0.61093128915313821 0 0.39743091024207589 0.6239520004230239 0 0.3977710372045391 0.65868194622830212 0 0.43846182030517877 0.64845797726506715 0 0.39743091024207589 0.6239520004230239 0 0.36622285152418499 0.69092437780804039 0 0.40326160981139969 0.73346192995102844 0 0.43323420005758778 0.6913544522562407 0 0.40326160981139969 0.73346192995102844 0 0.43323420005758778 0.6913544522562407 0 0.45582236402875981 0.73896743678908217 0 0.42676259796334498 0.76772545931379299 0 0.40326160981139969 0.73346192995102844 0 0.45582236402875981 0.73896743678908217 0 0.43323420005758778 0.6913544522562407 0 0.45582236402875981 0.73896743678908217 0 0.5 0.69999999999999996 0 0.45582236402875981 0.73896743678908217 0 0.5 0.69999999999999996 0 0.50945740445113552 0.75476055527778108 0 0.43323420005758778 0.6913544522562407 0 0.47913475093885149 0.66010775372412711 0 0.5 0.69999999999999996 0 0.43846182030517877 0.64845797726506715 0 0.47913475093885149 0.66010775372412711 0 0.47095389620662098 0.61892551373708504 0 0.43846182030517877 0.64845797726506715 0 0.47095389620662098 0.61892551373708504 0 0.43545892161006339 0.61093128915313821 0 0.43323420005758778 0.6913544522562407 0 0.43846182030517877 0.64845797726506715 0 0.47913475093885149 0.66010775372412711 0 0.47913475093885149 0.66010775372412711 0 0.47095389620662098 0.61892551373708504 0 0.50715858906372158 0.63295939104129484 0 0.47095389620662098 0.61892551373708504 0 0.5166924242153631 0.59825134841919447 0 0.50715858906372158 0.63295939104129484 0 0.47095389620662098 0.61892551373708504 0 0.46666084890304671 0.57634471035397938 0 0.5166924242153631 0.59825134841919447 0 0.47095389620662098 0.61892551373708504 0 0.46666084890304671 0.57634471035397938 0 0.43545892161006339 0.61093128915313821 0 0.43545892161006339 0.61093128915313821 0 0.4089290844030305 0.58728915500154233 0 0.39743091024207589 0.6239520004230239 0 0.46666084890304671 0.57634471035397938 0 0.43545892161006339 0.61093128915313821 0 0.4089290844030305 0.58728915500154233 0 0.46666084890304671 0.57634471035397938 0 0.4089290844030305 0.58728915500154233 0 0.42644501560315817 0.54603747078095544 0 0.37272913873093971 0.56192925302619479 0 0.4089290844030305 0.58728915500154233 0 0.42644501560315817 0.54603747078095544 0 0.35765792684946668 0.6000687869219653 0 0.37272913873093971 0.56192925302619479 0 0.4089290844030305 0.58728915500154233 0 0.35765792684946668 0.6000687869219653 0 0.4089290844030305 0.58728915500154233 0 0.39743091024207589 0.6239520004230239 0 0.37272913873093971 0.56192925302619479 0 0.38244435121258652 0.51653317813019495 0 0.42644501560315817 0.54603747078095544 0 0.43507373378304309 0.49699695397193322 0 0.38244435121258652 0.51653317813019495 0 0.42644501560315817 0.54603747078095544 0 0.46666084890304671 0.57634471035397938 0 0.47793794143994173 0.52940715638744962 0 0.53245488764484505 0.55078124999999989 0 0.43507373378304309 0.49699695397193322 0 0.49102375406324739 0.49123754822244059 0 0.47793794143994173 0.52940715638744962 0 0.43507373378304309 0.49699695397193322 0 0.42644501560315817 0.54603747078095544 0 0.47793794143994173 0.52940715638744962 0 0.46666084890304671 0.57634471035397938 0 0.42644501560315817 0.54603747078095544 0 0.47793794143994173 0.52940715638744962 0 0.49102375406324739 0.49123754822244059 0 0.47793794143994173 0.52940715638744962 0 0.53330375813596242 0.50827942741749099 0 0.47793794143994173 0.52940715638744962 0 0.53245488764484505 0.55078124999999989 0 0.53330375813596242 0.50827942741749099 0 0.53245488764484505 0.55078124999999989 0 0.53330375813596242 0.50827942741749099 0 0.57435499076887508 0.54267261987897775 0 0.53245488764484505 0.55078124999999989 0 0.57435499076887508 0.54267261987897775 0 0.57412547362576272 0.58273804879550706 0 0.53330375813596242 0.50827942741749099 0 0.57611405284611883 0.50165903596042916 0 0.57435499076887508 0.54267261987897775 0 0.57611405284611883 0.50165903596042916 0 0.57435499076887508 0.54267261987897775 0 0.62042975506801734 0.54295974692364424 0 0.57435499076887508 0.54267261987897775 0 0.62042975506801734 0.54295974692364424 0 0.57412547362576272 0.58273804879550706 0 0.57611405284611883 0.50165903596042916 0 0.62042975506801734 0.54295974692364424 0 0.61547661924074692 0.48539576058873962 0 0.5991018319127801 0.62925360607495295 0 0.6405463747586706 0.63290524857395714 0 0.63065402604362242 0.59661356661633302 0 0.57412547362576272 0.58273804879550706 0 0.5991018319127801 0.62925360607495295 0 0.63065402604362242 0.59661356661633302 0 0.62042975506801734 0.54295974692364424 0 0.57412547362576272 0.58273804879550706 0 0.63065402604362242 0.59661356661633302 0 0.57412547362576272 0.58273804879550706 0 0.5498280205245758 0.6290146943450976 0 0.5991018319127801 0.62925360607495295 0 0.46666084890304671 0.57634471035397938 0 0.53245488764484505 0.55078124999999989 0 0.5166924242153631 0.59825134841919447 0 0.57412547362576272 0.58273804879550706 0 0.5166924242153631 0.59825134841919447 0 0.5498280205245758 0.6290146943450976 0 0.53245488764484505 0.55078124999999989 0 0.57412547362576272 0.58273804879550706 0 0.5166924242153631 0.59825134841919447 0 0.5166924242153631 0.59825134841919447 0 0.50715858906372158 0.63295939104129484 0 0.5498280205245758 0.6290146943450976 0 0.47913475093885149 0.66010775372412711 0 0.50715858906372158 0.63295939104129484 0 0.52584555706968406 0.66664215091846768 0 0.50715858906372158 0.63295939104129484 0 0.52584555706968406 0.66664215091846768 0 0.5498280205245758 0.6290146943450976 0 0.47913475093885149 0.66010775372412711 0 0.52584555706968406 0.66664215091846768 0 0.5 0.69999999999999996 0 0.52584555706968406 0.66664215091846768 0 0.54999999999999993 0.69999999999999996 0 0.57484956128872922 0.66573805030881994 0 0.52584555706968406 0.66664215091846768 0 0.5498280205245758 0.6290146943450976 0 0.57484956128872922 0.66573805030881994 0 0.5 0.69999999999999996 0 0.55363780716230748 0.74348740161571747 0 0.50945740445113552 0.75476055527778108 0 0.52584555706968406 0.66664215091846768 0 0.5 0.69999999999999996 0 0.54999999999999993 0.69999999999999996 0 0.5 0.69999999999999996 0 0.54999999999999993 0.69999999999999996 0 0.5 0.69999999999999996 0 0.54999999999999993 0.69999999999999996 0 0.55363780716230748 0.74348740161571747 0 0.55363780716230748 0.74348740161571747 0 0.59999999999999976 0.69999999999999996 0 0.59636844454254345 0.75937156204589151 0 0.54999999999999993 0.69999999999999996 0 0.59999999999999976 0.69999999999999996 0 0.54999999999999993 0.69999999999999996 0 0.59999999999999976 0.69999999999999996 0 0.57484956128872922 0.66573805030881994 0 0.54999999999999993 0.69999999999999996 0 0.55363780716230748 0.74348740161571747 0 0.59999999999999976 0.69999999999999996 0 0.59999999999999976 0.69999999999999996 0 0.6499999999999998 0.69999999999999996 0 0.59999999999999976 0.69999999999999996 0 0.62460753523532009 0.66851202781000296 0 0.6499999999999998 0.69999999999999996 0 0.59999999999999976 0.69999999999999996 0 0.63221990677827677 0.73442891067859706 0 0.59636844454254345 0.75937156204589151 0 0.5498280205245758 0.6290146943450976 0 0.57484956128872922 0.66573805030881994 0 0.5991018319127801 0.62925360607495295 0 0.59999999999999976 0.69999999999999996 0 0.57484956128872922 0.66573805030881994 0 0.62460753523532009 0.66851202781000296 0 0.57484956128872922 0.66573805030881994 0 0.62460753523532009 0.66851202781000296 0 0.5991018319127801 0.62925360607495295 0 0.62460753523532009 0.66851202781000296 0 0.5991018319127801 0.62925360607495295 0 0.6405463747586706 0.63290524857395714 0 0.62460753523532009 0.66851202781000296 0 0.6405463747586706 0.63290524857395714 0 0.675261390228442 0.65996937624687813 0 0.62460753523532009 0.66851202781000296 0 0.675261390228442 0.65996937624687813 0 0.6499999999999998 0.69999999999999996 0 0.675261390228442 0.65996937624687813 0 0.6499999999999998 0.69999999999999996 0 0.69999999999999984 0.69999999999999996 0 0.6405463747586706 0.63290524857395714 0 0.675261390228442 0.65996937624687813 0 0.67529834988829951 0.61613270668143583 0 0.63221990677827677 0.73442891067859706 0 0.66427993341343905 0.73232764502436276 0 0.64753070846764316 0.77332939069435502 0 0.63221990677827677 0.73442891067859706 0 0.6499999999999998 0.69999999999999996 0 0.66427993341343905 0.73232764502436276 0 0.59999999999999976 0.69999999999999996 0 0.63221990677827677 0.73442891067859706 0 0.6499999999999998 0.69999999999999996 0 0.6499999999999998 0.69999999999999996 0 0.69999999999999984 0.69999999999999996 0 0.6499999999999998 0.69999999999999996 0 0.66427993341343905 0.73232764502436276 0 0.69999999999999984 0.69999999999999996 0 0.66427993341343905 0.73232764502436276 0 0.69999999999999984 0.69999999999999996 0 0.6916490518212759 0.75387992374886192 0 0.69999999999999984 0.69999999999999996 0 0.72501250972655151 0.74067302935308721 0 0.6916490518212759 0.75387992374886192 0 0.69999999999999984 0.69999999999999996 0 0.74999999999999989 0.69999999999999996 0 0.72501250972655151 0.74067302935308721 0 0.69999999999999984 0.69999999999999996 0 0.74999999999999989 0.69999999999999996 0 0.72500000000000064 0.67022701834392062 0 0.69999999999999984 0.69999999999999996 0 0.74999999999999989 0.69999999999999996 0 0.74999999999999989 0.69999999999999996 0 0.72501250972655151 0.74067302935308721 0 0.75841349681148107 0.75422312624214749 0 0.675261390228442 0.65996937624687813 0 0.71406021706547751 0.63292083137662503 0 0.72500000000000064 0.67022701834392062 0 0.675261390228442 0.65996937624687813 0 0.71406021706547751 0.63292083137662503 0 0.67529834988829951 0.61613270668143583 0 0.675261390228442 0.65996937624687813 0 0.69999999999999984 0.69999999999999996 0 0.72500000000000064 0.67022701834392062 0 0.71406021706547751 0.63292083137662503 0 0.72500000000000064 0.67022701834392062 0 0.74994237037456724 0.62775548192980357 0 0.72500000000000064 0.67022701834392062 0 0.74994237037456724 0.62775548192980357 0 0.7750489929959945 0.66593931409600093 0 0.71406021706547751 0.63292083137662503 0 0.74994237037456724 0.62775548192980357 0 0.71809016091162536 0.58185040402320831 0 0.74994237037456724 0.62775548192980357 0 0.71809016091162536 0.58185040402320831 0 0.77293540622714185 0.59448302402785813 0 0.71406021706547751 0.63292083137662503 0 0.71809016091162536 0.58185040402320831 0 0.67529834988829951 0.61613270668143583 0 0.71809016091162536 0.58185040402320831 0 0.67569444444444449 0.53500863336860327 0 0.67323294229744413 0.57556450033612505 0 0.71809016091162536 0.58185040402320831 0 0.67529834988829951 0.61613270668143583 0 0.67323294229744413 0.57556450033612505 0 0.71809016091162536 0.58185040402320831 0 0.7152569930854884 0.5237994455134295 0 0.77151014687832564 0.54436834383023036 0 0.7152569930854884 0.5237994455134295 0 0.77151014687832564 0.54436834383023036 0 0.73947346780852752 0.49062440112282169 0 0.7152569930854884 0.5237994455134295 0 0.67569444444444449 0.53500863336860327 0 0.69385896817107129 0.48377516041410151 0 0.71809016091162536 0.58185040402320831 0 0.7152569930854884 0.5237994455134295 0 0.67569444444444449 0.53500863336860327 0 0.62042975506801734 0.54295974692364424 0 0.67569444444444449 0.53500863336860327 0 0.67323294229744413 0.57556450033612505 0 0.67569444444444449 0.53500863336860327 0 0.6541250972820879 0.49999999999999989 0 0.69385896817107129 0.48377516041410151 0 0.62042975506801734 0.54295974692364424 0 0.67569444444444449 0.53500863336860327 0 0.6541250972820879 0.49999999999999989 0 0.62042975506801734 0.54295974692364424 0 0.61547661924074692 0.48539576058873962 0 0.6541250972820879 0.49999999999999989 0 0.62042975506801734 0.54295974692364424 0 0.63065402604362242 0.59661356661633302 0 0.67323294229744413 0.57556450033612505 0 0.6405463747586706 0.63290524857395714 0 0.63065402604362242 0.59661356661633302 0 0.67529834988829951 0.61613270668143583 0 0.63065402604362242 0.59661356661633302 0 0.67529834988829951 0.61613270668143583 0 0.67323294229744413 0.57556450033612505 0 0.60000000000138687 1 0 0.62065498684670595 0.95224934003983619 0 0.57382506491224949 0.9629411906298494 0 0.60000000000138687 1 0 0.62065498684670595 0.95224934003983619 0 0.65000000000104008 1 0 0.62065498684670595 0.95224934003983619 0 0.57382506491224949 0.9629411906298494 0 0.57724883562309992 0.92155686857100794 0 0.60000000000138687 1 0 0.57382506491224949 0.9629411906298494 0 0.55000000000173355 1 0 0.55000000000173355 1 0 0.50000000000205869 1 0 0.52122150208832174 0.94089974453840242 0 0.57382506491224949 0.9629411906298494 0 0.52122150208832174 0.94089974453840242 0 0.57724883562309992 0.92155686857100794 0 0.57382506491224949 0.9629411906298494 0 0.55000000000173355 1 0 0.52122150208832174 0.94089974453840242 0 0.52122150208832174 0.94089974453840242 0 0.54783390826260769 0.89287767010860219 0 0.57724883562309992 0.92155686857100794 0 0.52122150208832174 0.94089974453840242 0 0.50202631463681879 0.87892870825713787 0 0.54783390826260769 0.89287767010860219 0 0.54783390826260769 0.89287767010860219 0 0.5832743223239254 0.88483152652961872 0 0.55899371797446828 0.85003102233514438 0 0.54783390826260769 0.89287767010860219 0 0.5832743223239254 0.88483152652961872 0 0.57724883562309992 0.92155686857100794 0 0.5832743223239254 0.88483152652961872 0 0.57724883562309992 0.92155686857100794 0 0.61885627562261258 0.90282959257498208 0 0.62065498684670595 0.95224934003983619 0 0.57724883562309992 0.92155686857100794 0 0.61885627562261258 0.90282959257498208 0 0.5832743223239254 0.88483152652961872 0 0.61885627562261258 0.90282959257498208 0 0.61343887413683884 0.856862479058357 0 0.61343887413683884 0.856862479058357 0 0.60294066490120068 0.80851322453934582 0 0.65005442820240822 0.82644988530054031 0 0.61343887413683884 0.856862479058357 0 0.55899371797446828 0.85003102233514438 0 0.60294066490120068 0.80851322453934582 0 0.55899371797446828 0.85003102233514438 0 0.54782696902220018 0.79245182748204157 0 0.60294066490120068 0.80851322453934582 0 0.5832743223239254 0.88483152652961872 0 0.61343887413683884 0.856862479058357 0 0.55899371797446828 0.85003102233514438 0 0.50202631463681879 0.87892870825713787 0 0.54783390826260769 0.89287767010860219 0 0.55899371797446828 0.85003102233514438 0 0.50202631463681879 0.87892870825713787 0 0.55899371797446828 0.85003102233514438 0 0.50627822638148745 0.8263979829520941 0 0.55899371797446828 0.85003102233514438 0 0.50627822638148745 0.8263979829520941 0 0.54782696902220018 0.79245182748204157 0 0.50627822638148745 0.8263979829520941 0 0.54782696902220018 0.79245182748204157 0 0.50731287292894423 0.78963574450233831 0 0.54782696902220018 0.79245182748204157 0 0.50731287292894423 0.78963574450233831 0 0.50945740445113552 0.75476055527778108 0 0.55363780716230748 0.74348740161571747 0 0.54782696902220018 0.79245182748204157 0 0.50945740445113552 0.75476055527778108 0 0.55363780716230748 0.74348740161571747 0 0.54782696902220018 0.79245182748204157 0 0.59636844454254345 0.75937156204589151 0 0.54782696902220018 0.79245182748204157 0 0.60294066490120068 0.80851322453934582 0 0.59636844454254345 0.75937156204589151 0 0.60294066490120068 0.80851322453934582 0 0.59636844454254345 0.75937156204589151 0 0.64753070846764316 0.77332939069435502 0 0.63221990677827677 0.73442891067859706 0 0.59636844454254345 0.75937156204589151 0 0.64753070846764316 0.77332939069435502 0 0.60294066490120068 0.80851322453934582 0 0.64753070846764316 0.77332939069435502 0 0.65005442820240822 0.82644988530054031 0 0.64753070846764316 0.77332939069435502 0 0.68024162096458085 0.79868546898116533 0 0.65005442820240822 0.82644988530054031 0 0.64753070846764316 0.77332939069435502 0 0.68024162096458085 0.79868546898116533 0 0.6916490518212759 0.75387992374886192 0 0.66427993341343905 0.73232764502436276 0 0.64753070846764316 0.77332939069435502 0 0.6916490518212759 0.75387992374886192 0 0.72501250972655151 0.74067302935308721 0 0.6916490518212759 0.75387992374886192 0 0.72500000000000064 0.7952620967744265 0 0.72501250972655151 0.74067302935308721 0 0.72500000000000064 0.7952620967744265 0 0.75841349681148107 0.75422312624214749 0 0.68024162096458085 0.79868546898116533 0 0.6916490518212759 0.75387992374886192 0 0.72500000000000064 0.7952620967744265 0 0.68024162096458085 0.79868546898116533 0 0.72500000000000064 0.7952620967744265 0 0.68697391633157634 0.84450604838764298 0 0.72500000000000064 0.7952620967744265 0 0.72863726579783861 0.85390518901155588 0 0.68697391633157634 0.84450604838764298 0 0.72500000000000064 0.7952620967744265 0 0.72863726579783861 0.85390518901155588 0 0.76901770135486491 0.84293557325473656 0 0.72863726579783861 0.85390518901155588 0 0.68697391633157634 0.84450604838764298 0 0.7250000000005199 0.89375000000045834 0 0.68697391633157634 0.84450604838764298 0 0.66412543161245952 0.88015090885499059 0 0.7250000000005199 0.89375000000045834 0 0.68697391633157634 0.84450604838764298 0 0.65005442820240822 0.82644988530054031 0 0.66412543161245952 0.88015090885499059 0 0.68024162096458085 0.79868546898116533 0 0.68697391633157634 0.84450604838764298 0 0.65005442820240822 0.82644988530054031 0 0.61343887413683884 0.856862479058357 0 0.65005442820240822 0.82644988530054031 0 0.66412543161245952 0.88015090885499059 0 0.61885627562261258 0.90282959257498208 0 0.61343887413683884 0.856862479058357 0 0.66412543161245952 0.88015090885499059 0 0.61885627562261258 0.90282959257498208 0 0.65507451745379841 0.92229208810758578 0 0.66412543161245952 0.88015090885499059 0 0.62065498684670595 0.95224934003983619 0 0.61885627562261258 0.90282959257498208 0 0.65507451745379841 0.92229208810758578 0 0.65507451745379841 0.92229208810758578 0 0.68987011941058407 0.92105047536677087 0 0.68015064798562208 0.95924320340003011 0 0.65507451745379841 0.92229208810758578 0 0.66412543161245952 0.88015090885499059 0 0.68987011941058407 0.92105047536677087 0 0.66412543161245952 0.88015090885499059 0 0.7250000000005199 0.89375000000045834 0 0.68987011941058407 0.92105047536677087 0 0.72863726579783861 0.85390518901155588 0 0.7250000000005199 0.89375000000045834 0 0.76891166905518427 0.88835469571185499 0 0.7250000000005199 0.89375000000045834 0 0.7250000000005199 0.94981617647078953 0 0.75729602384198635 0.92353652857884294 0 0.7250000000005199 0.89375000000045834 0 0.68987011941058407 0.92105047536677087 0 0.7250000000005199 0.94981617647078953 0 0.68987011941058407 0.92105047536677087 0 0.7250000000005199 0.94981617647078953 0 0.68015064798562208 0.95924320340003011 0 0.7250000000005199 0.94981617647078953 0 0.7000000000006934 1 0 0.75000000000034661 1 0 0.7250000000005199 0.94981617647078953 0 0.75000000000034661 1 0 0.770759834363826 0.95919399014344442 0 0.7250000000005199 0.94981617647078953 0 0.7000000000006934 1 0 0.68015064798562208 0.95924320340003011 0 0.7000000000006934 1 0 0.68015064798562208 0.95924320340003011 0 0.65000000000104008 1 0 0.62065498684670595 0.95224934003983619 0 0.65507451745379841 0.92229208810758578 0 0.68015064798562208 0.95924320340003011 0 0.62065498684670595 0.95224934003983619 0 0.68015064798562208 0.95924320340003011 0 0.65000000000104008 1 0 0.84999999999965292 1 0 0.85170973911348691 0.93569607295217616 0 0.89898474358632463 0.95391965591118966 0 0.84999999999965292 1 0 0.81486180804382891 0.96321394949790495 0 0.85170973911348691 0.93569607295217616 0 0.81486180804382891 0.96321394949790495 0 0.79680861578988083 0.92656778056766709 0 0.85170973911348691 0.93569607295217616 0 0.84999999999965292 1 0 0.81486180804382891 0.96321394949790495 0 0.79999999999999982 1 0 0.81486180804382891 0.96321394949790495 0 0.79999999999999982 1 0 0.770759834363826 0.95919399014344442 0 0.79999999999999982 1 0 0.75000000000034661 1 0 0.770759834363826 0.95919399014344442 0 0.7250000000005199 0.94981617647078953 0 0.770759834363826 0.95919399014344442 0 0.75729602384198635 0.92353652857884294 0 0.81486180804382891 0.96321394949790495 0 0.770759834363826 0.95919399014344442 0 0.79680861578988083 0.92656778056766709 0 0.79680861578988083 0.92656778056766709 0 0.75729602384198635 0.92353652857884294 0 0.76891166905518427 0.88835469571185499 0 0.770759834363826 0.95919399014344442 0 0.79680861578988083 0.92656778056766709 0 0.75729602384198635 0.92353652857884294 0 0.7250000000005199 0.89375000000045834 0 0.75729602384198635 0.92353652857884294 0 0.76891166905518427 0.88835469571185499 0 0.79680861578988083 0.92656778056766709 0 0.76891166905518427 0.88835469571185499 0 0.81159157511211755 0.88795995483179491 0 0.81159157511211755 0.88795995483179491 0 0.85170973911348691 0.93569607295217616 0 0.85600844944837662 0.88483418979512773 0 0.79680861578988083 0.92656778056766709 0 0.81159157511211755 0.88795995483179491 0 0.85170973911348691 0.93569607295217616 0 0.85170973911348691 0.93569607295217616 0 0.85600844944837662 0.88483418979512773 0 0.90416666666660628 0.9041666666666166 0 0.85600844944837662 0.88483418979512773 0 0.82709327591091286 0.84937141670920724 0 0.88088768115933802 0.84674609810493673 0 0.82709327591091286 0.84937141670920724 0 0.84725310900444062 0.80779732082917555 0 0.88088768115933802 0.84674609810493673 0 0.82709327591091286 0.84937141670920724 0 0.80041942726660109 0.81543261647703358 0 0.84725310900444062 0.80779732082917555 0 0.81159157511211755 0.88795995483179491 0 0.85600844944837662 0.88483418979512773 0 0.82709327591091286 0.84937141670920724 0 0.76891166905518427 0.88835469571185499 0 0.81159157511211755 0.88795995483179491 0 0.76901770135486491 0.84293557325473656 0 0.81159157511211755 0.88795995483179491 0 0.82709327591091286 0.84937141670920724 0 0.76901770135486491 0.84293557325473656 0 0.72863726579783861 0.85390518901155588 0 0.76891166905518427 0.88835469571185499 0 0.76901770135486491 0.84293557325473656 0 0.76901770135486491 0.84293557325473656 0 0.80041942726660109 0.81543261647703358 0 0.77094201086366854 0.79647480515688507 0 0.82709327591091286 0.84937141670920724 0 0.76901770135486491 0.84293557325473656 0 0.80041942726660109 0.81543261647703358 0 0.80041942726660109 0.81543261647703358 0 0.77094201086366854 0.79647480515688507 0 0.80185942888539485 0.77452061303608133 0 0.72500000000000064 0.7952620967744265 0 0.77094201086366854 0.79647480515688507 0 0.75841349681148107 0.75422312624214749 0 0.72500000000000064 0.7952620967744265 0 0.76901770135486491 0.84293557325473656 0 0.77094201086366854 0.79647480515688507 0 0.77094201086366854 0.79647480515688507 0 0.75841349681148107 0.75422312624214749 0 0.80185942888539485 0.77452061303608133 0 0.75841349681148107 0.75422312624214749 0 0.80185942888539485 0.77452061303608133 0 0.78578450296893509 0.73292684821144505 0 0.80185942888539485 0.77452061303608133 0 0.84725310900444062 0.80779732082917555 0 0.85491058998424563 0.76004753345552634 0 0.80185942888539485 0.77452061303608133 0 0.85491058998424563 0.76004753345552634 0 0.81864958914779962 0.73589050177899629 0 0.80041942726660109 0.81543261647703358 0 0.80185942888539485 0.77452061303608133 0 0.84725310900444062 0.80779732082917555 0 0.84725310900444062 0.80779732082917555 0 0.85491058998424563 0.76004753345552634 0 0.90299850604011456 0.79563452813489832 0 0.85491058998424563 0.76004753345552634 0 0.90299850604011456 0.79563452813489832 0 0.89999166460796554 0.74528934923809909 0 0.90299850604011456 0.79563452813489832 0 0.94399509803918602 0.75600490196082126 0 0.95386563387742829 0.80414874155775029 0 0.90299850604011456 0.79563452813489832 0 0.94399509803918602 0.75600490196082126 0 0.89999166460796554 0.74528934923809909 0 0.94399509803918602 0.75600490196082126 0 0.97435614836745565 0.77499999999987745 0 0.95386563387742829 0.80414874155775029 0 0.94399509803918602 0.75600490196082126 0 0.97435614836745565 0.77499999999987745 0 0.97166519676947294 0.73337114490064459 0 0.97435614836745565 0.77499999999987745 0 0.97166519676947294 0.73337114490064459 0 1 0.74999999999993494 0 0.97435614836745565 0.77499999999987745 0 1 0.7999999999998193 0 1 0.74999999999993494 0 0.97435614836745565 0.77499999999987745 0 1 0.7999999999998193 0 0.95386563387742829 0.80414874155775029 0 1 0.84999999999982645 0 0.93677536231884972 0.85000000000000286 0 0.95391631417670719 0.89584263333814784 0 0.95386563387742829 0.80414874155775029 0 1 0.84999999999982645 0 0.93677536231884972 0.85000000000000286 0 1 0.7999999999998193 0 0.95386563387742829 0.80414874155775029 0 1 0.84999999999982645 0 0.93677536231884972 0.85000000000000286 0 0.88088768115933802 0.84674609810493673 0 0.90416666666660628 0.9041666666666166 0 0.90299850604011456 0.79563452813489832 0 0.95386563387742829 0.80414874155775029 0 0.93677536231884972 0.85000000000000286 0 0.90299850604011456 0.79563452813489832 0 0.93677536231884972 0.85000000000000286 0 0.88088768115933802 0.84674609810493673 0 0.84725310900444062 0.80779732082917555 0 0.90299850604011456 0.79563452813489832 0 0.88088768115933802 0.84674609810493673 0 0.85600844944837662 0.88483418979512773 0 0.88088768115933802 0.84674609810493673 0 0.90416666666660628 0.9041666666666166 0 0.85170973911348691 0.93569607295217616 0 0.90416666666660628 0.9041666666666166 0 0.89898474358632463 0.95391965591118966 0 0.90416666666660628 0.9041666666666166 0 0.95391631417670719 0.89584263333814784 0 0.94399509803919068 0.9439950980391687 0 0.90416666666660628 0.9041666666666166 0 0.94399509803919068 0.9439950980391687 0 0.89898474358632463 0.95391965591118966 0 0.93677536231884972 0.85000000000000286 0 0.90416666666660628 0.9041666666666166 0 0.95391631417670719 0.89584263333814784 0 1 0.84999999999982645 0 0.95391631417670719 0.89584263333814784 0 1 0.8999999999998336 0 1 0.8999999999998336 0 0.97435614836744289 0.92499999999990257 0 1 0.94999999999997109 0 0.95391631417670719 0.89584263333814784 0 1 0.8999999999998336 0 0.97435614836744289 0.92499999999990257 0 0.95391631417670719 0.89584263333814784 0 0.97435614836744289 0.92499999999990257 0 0.94399509803919068 0.9439950980391687 0 0.97435614836744289 0.92499999999990257 0 0.94399509803919068 0.9439950980391687 0 0.97166519676946206 0.96662885509935492 0 0.97435614836744289 0.92499999999990257 0 0.97166519676946206 0.96662885509935492 0 1 0.94999999999997109 0 0.97166519676946206 0.96662885509935492 0 1 0.94999999999997109 0 1 1 0 0.97166519676946206 0.96662885509935492 0 1 1 0 0.94999999999979179 1 0 0.94399509803919068 0.9439950980391687 0 0.97166519676946206 0.96662885509935492 0 0.94999999999979179 1 0 0.94999999999979179 1 0 0.89898474358632463 0.95391965591118966 0 0.89999999999958358 1 0 0.94399509803919068 0.9439950980391687 0 0.94999999999979179 1 0 0.89898474358632463 0.95391965591118966 0 0.84999999999965292 1 0 0.89898474358632463 0.95391965591118966 0 0.89999999999958358 1 0 0.81723410853263523 0.59419663659258926 0 0.86956835336234861 0.571283299838105 0 0.82862096804812391 0.55037090955459045 0 0.81723410853263523 0.59419663659258926 0 0.87159648282691515 0.61285406320581504 0 0.83758014339878906 0.63222013025741819 0 0.81723410853263523 0.59419663659258926 0 0.79884539758237771 0.62875045078114233 0 0.83758014339878906 0.63222013025741819 0 0.81723410853263523 0.59419663659258926 0 0.87159648282691515 0.61285406320581504 0 0.86956835336234861 0.571283299838105 0 0.86956835336234861 0.571283299838105 0 0.86907294890112186 0.52008116128001669 0 0.82862096804812391 0.55037090955459045 0 0.86907294890112186 0.52008116128001669 0 0.81441713509985358 0.51161854125224959 0 0.82862096804812391 0.55037090955459045 0 0.86907294890112186 0.52008116128001669 0 0.81441713509985358 0.51161854125224959 0 0.84723782639812573 0.48638347960178252 0 0.81441713509985358 0.51161854125224959 0 0.82862096804812391 0.55037090955459045 0 0.77151014687832564 0.54436834383023036 0 0.81441713509985358 0.51161854125224959 0 0.77151014687832564 0.54436834383023036 0 0.77846603114747959 0.49850927265137401 0 0.77151014687832564 0.54436834383023036 0 0.77846603114747959 0.49850927265137401 0 0.73947346780852752 0.49062440112282169 0 0.71809016091162536 0.58185040402320831 0 0.77151014687832564 0.54436834383023036 0 0.77293540622714185 0.59448302402785813 0 0.81723410853263523 0.59419663659258926 0 0.77151014687832564 0.54436834383023036 0 0.77293540622714185 0.59448302402785813 0 0.81723410853263523 0.59419663659258926 0 0.82862096804812391 0.55037090955459045 0 0.77151014687832564 0.54436834383023036 0 0.81723410853263523 0.59419663659258926 0 0.77293540622714185 0.59448302402785813 0 0.79884539758237771 0.62875045078114233 0 0.74994237037456724 0.62775548192980357 0 0.77293540622714185 0.59448302402785813 0 0.79884539758237771 0.62875045078114233 0 0.74994237037456724 0.62775548192980357 0 0.7750489929959945 0.66593931409600093 0 0.79884539758237771 0.62875045078114233 0 0.74999999999999989 0.69999999999999996 0 0.72500000000000064 0.67022701834392062 0 0.7750489929959945 0.66593931409600093 0 0.7750489929959945 0.66593931409600093 0 0.79999999999999982 0.69999999999999996 0 0.82457059160610424 0.66831947184359608 0 0.7750489929959945 0.66593931409600093 0 0.79884539758237771 0.62875045078114233 0 0.82457059160610424 0.66831947184359608 0 0.74999999999999989 0.69999999999999996 0 0.75841349681148107 0.75422312624214749 0 0.78578450296893509 0.73292684821144505 0 0.74999999999999989 0.69999999999999996 0 0.79999999999999982 0.69999999999999996 0 0.78578450296893509 0.73292684821144505 0 0.74999999999999989 0.69999999999999996 0 0.7750489929959945 0.66593931409600093 0 0.79999999999999982 0.69999999999999996 0 0.74999999999999989 0.69999999999999996 0 0.79999999999999982 0.69999999999999996 0 0.80185942888539485 0.77452061303608133 0 0.78578450296893509 0.73292684821144505 0 0.81864958914779962 0.73589050177899629 0 0.79999999999999982 0.69999999999999996 0 0.78578450296893509 0.73292684821144505 0 0.81864958914779962 0.73589050177899629 0 0.85491058998424563 0.76004753345552634 0 0.81864958914779962 0.73589050177899629 0 0.84999999999999987 0.69999999999999996 0 0.79999999999999982 0.69999999999999996 0 0.84999999999999987 0.69999999999999996 0 0.79999999999999982 0.69999999999999996 0 0.84999999999999987 0.69999999999999996 0 0.82457059160610424 0.66831947184359608 0 0.79999999999999982 0.69999999999999996 0 0.81864958914779962 0.73589050177899629 0 0.84999999999999987 0.69999999999999996 0 0.84999999999999987 0.69999999999999996 0 0.89999999999999991 0.69999999999999996 0 0.85491058998424563 0.76004753345552634 0 0.84999999999999987 0.69999999999999996 0 0.89999166460796554 0.74528934923809909 0 0.79884539758237771 0.62875045078114233 0 0.83758014339878906 0.63222013025741819 0 0.82457059160610424 0.66831947184359608 0 0.84999999999999987 0.69999999999999996 0 0.82457059160610424 0.66831947184359608 0 0.87712158428786946 0.65709029563313581 0 0.87159648282691515 0.61285406320581504 0 0.83758014339878906 0.63222013025741819 0 0.87712158428786946 0.65709029563313581 0 0.83758014339878906 0.63222013025741819 0 0.82457059160610424 0.66831947184359608 0 0.87712158428786946 0.65709029563313581 0 0.87712158428786946 0.65709029563313581 0 0.92057473616084773 0.66770436535372446 0 0.91750694127105259 0.63017627779935648 0 0.87159648282691515 0.61285406320581504 0 0.87712158428786946 0.65709029563313581 0 0.91750694127105259 0.63017627779935648 0 0.84999999999999987 0.69999999999999996 0 0.87712158428786946 0.65709029563313581 0 0.89999999999999991 0.69999999999999996 0 0.87712158428786946 0.65709029563313581 0 0.92057473616084773 0.66770436535372446 0 0.89999999999999991 0.69999999999999996 0 0.92057473616084773 0.66770436535372446 0 0.91750694127105259 0.63017627779935648 0 0.9578014258160763 0.65787212321113708 0 0.84999999999999987 0.69999999999999996 0 0.89999166460796554 0.74528934923809909 0 0.89999999999999991 0.69999999999999996 0 0.89999999999999991 0.69999999999999996 0 0.94999999999999996 0.69999999999999996 0 0.92057473616084773 0.66770436535372446 0 0.89999999999999991 0.69999999999999996 0 0.94999999999999996 0.69999999999999996 0 0.89999166460796554 0.74528934923809909 0 0.89999999999999991 0.69999999999999996 0 0.94999999999999996 0.69999999999999996 0 0.94399509803918602 0.75600490196082126 0 0.89999166460796554 0.74528934923809909 0 0.94999999999999996 0.69999999999999996 0 0.94399509803918602 0.75600490196082126 0 0.94999999999999996 0.69999999999999996 0 0.97166519676947294 0.73337114490064459 0 0.94999999999999996 0.69999999999999996 0 1 0.69999999999999996 0 0.94999999999999996 0.69999999999999996 0 1 0.69999999999999996 0 0.97166519676947294 0.73337114490064459 0 1 0.69999999999999996 0 0.97166519676947294 0.73337114490064459 0 1 0.74999999999993494 0 0.91750694127105259 0.63017627779935648 0 0.9578014258160763 0.65787212321113708 0 0.95867599106212187 0.60011091146651041 0 0.92057473616084773 0.66770436535372446 0 0.94999999999999996 0.69999999999999996 0 0.9578014258160763 0.65787212321113708 0 0.94999999999999996 0.69999999999999996 0 1 0.69999999999999996 0 0.9578014258160763 0.65787212321113708 0 1 0.69999999999999996 0 0.9578014258160763 0.65787212321113708 0 1 0.64999999999986979 0 0.9578014258160763 0.65787212321113708 0 1 0.64999999999986979 0 0.95867599106212187 0.60011091146651041 0 0.95867599106212187 0.60011091146651041 0 0.93732437411268477 0.55911392101136159 0 1 0.54999999999963112 0 1 0.64999999999986979 0 1 0.59999999999973963 0 0.95867599106212187 0.60011091146651041 0 1 0.59999999999973963 0 0.95867599106212187 0.60011091146651041 0 1 0.54999999999963112 0 0.91750694127105259 0.63017627779935648 0 0.95867599106212187 0.60011091146651041 0 0.91143117093204207 0.58709913730335972 0 0.95867599106212187 0.60011091146651041 0 0.91143117093204207 0.58709913730335972 0 0.93732437411268477 0.55911392101136159 0 0.86956835336234861 0.571283299838105 0 0.91143117093204207 0.58709913730335972 0 0.90900154012161016 0.53607784105648792 0 0.87159648282691515 0.61285406320581504 0 0.86956835336234861 0.571283299838105 0 0.91143117093204207 0.58709913730335972 0 0.87159648282691515 0.61285406320581504 0 0.91750694127105259 0.63017627779935648 0 0.91143117093204207 0.58709913730335972 0 0.86907294890112186 0.52008116128001669 0 0.90900154012161016 0.53607784105648792 0 0.91696753777131557 0.497780560203536 0 0.86956835336234861 0.571283299838105 0 0.86907294890112186 0.52008116128001669 0 0.90900154012161016 0.53607784105648792 0 0.90900154012161016 0.53607784105648792 0 0.93732437411268477 0.55911392101136159 0 0.95631871884947484 0.51827533208233789 0 0.91143117093204207 0.58709913730335972 0 0.90900154012161016 0.53607784105648792 0 0.93732437411268477 0.55911392101136159 0 0.90900154012161016 0.53607784105648792 0 0.95631871884947484 0.51827533208233789 0 0.91696753777131557 0.497780560203536 0 0.93732437411268477 0.55911392101136159 0 0.95631871884947484 0.51827533208233789 0 1 0.54999999999963112 0 0.95631871884947484 0.51827533208233789 0 1 0.54999999999963112 0 1 0.49999999999950101 0 0.95631871884947484 0.51827533208233789 0 1 0.49999999999950101 0 0.96228564064454991 0.48206450662049471 0 1 0.49999999999950101 0 1 0.44999999999963131 0 0.96228564064454991 0.48206450662049471 0 1 0.44999999999963131 0 0.93814194660195893 0.44426664081746747 0 0.96228564064454991 0.48206450662049471 0 0.93814194660195893 0.44426664081746747 0 0.96228564064454991 0.48206450662049471 0 0.91696753777131557 0.497780560203536 0 0.95631871884947484 0.51827533208233789 0 0.96228564064454991 0.48206450662049471 0 0.91696753777131557 0.497780560203536 0 1 0.39999999999978308 0 0.95871855522754235 0.40006508612975411 0 1 0.34999999999993492 0 1 0.44999999999963131 0 1 0.39999999999978308 0 0.95871855522754235 0.40006508612975411 0 1 0.44999999999963131 0 0.93814194660195893 0.44426664081746747 0 0.95871855522754235 0.40006508612975411 0 0.95871855522754235 0.40006508612975411 0 0.90594285160987287 0.4141265964174129 0 0.91750694127107502 0.36982372220068471 0 0.93814194660195893 0.44426664081746747 0 0.95871855522754235 0.40006508612975411 0 0.90594285160987287 0.4141265964174129 0 0.90594285160987287 0.4141265964174129 0 0.88594198078881503 0.46167788676578442 0 0.86411095495256451 0.42388805655111889 0 0.90594285160987287 0.4141265964174129 0 0.86411095495256451 0.42388805655111889 0 0.86844634540301924 0.38530937474099819 0 0.90594285160987287 0.4141265964174129 0 0.86844634540301924 0.38530937474099819 0 0.91750694127107502 0.36982372220068471 0 0.93814194660195893 0.44426664081746747 0 0.91696753777131557 0.497780560203536 0 0.88594198078881503 0.46167788676578442 0 0.93814194660195893 0.44426664081746747 0 0.90594285160987287 0.4141265964174129 0 0.88594198078881503 0.46167788676578442 0 0.86907294890112186 0.52008116128001669 0 0.91696753777131557 0.497780560203536 0 0.88594198078881503 0.46167788676578442 0 0.86907294890112186 0.52008116128001669 0 0.88594198078881503 0.46167788676578442 0 0.84723782639812573 0.48638347960178252 0 0.81441713509985358 0.51161854125224959 0 0.84723782639812573 0.48638347960178252 0 0.81400510706333218 0.47357325943904899 0 0.84723782639812573 0.48638347960178252 0 0.81400510706333218 0.47357325943904899 0 0.84925632466077294 0.45359738909549091 0 0.81400510706333218 0.47357325943904899 0 0.84925632466077294 0.45359738909549091 0 0.81973119833356312 0.43505687159469048 0 0.88594198078881503 0.46167788676578442 0 0.84723782639812573 0.48638347960178252 0 0.84925632466077294 0.45359738909549091 0 0.84925632466077294 0.45359738909549091 0 0.86411095495256451 0.42388805655111889 0 0.81973119833356312 0.43505687159469048 0 0.88594198078881503 0.46167788676578442 0 0.84925632466077294 0.45359738909549091 0 0.86411095495256451 0.42388805655111889 0 0.86411095495256451 0.42388805655111889 0 0.86844634540301924 0.38530937474099819 0 0.81308179852519835 0.39754945808726527 0 0.86844634540301924 0.38530937474099819 0 0.81308179852519835 0.39754945808726527 0 0.83573492347052902 0.36590755630746369 0 0.86411095495256451 0.42388805655111889 0 0.81308179852519835 0.39754945808726527 0 0.81973119833356312 0.43505687159469048 0 0.81973119833356312 0.43505687159469048 0 0.77354604466818633 0.40378688774472771 0 0.77972660463949339 0.45529290596363098 0 0.81308179852519835 0.39754945808726527 0 0.81973119833356312 0.43505687159469048 0 0.77354604466818633 0.40378688774472771 0 0.81308179852519835 0.39754945808726527 0 0.77354604466818633 0.40378688774472771 0 0.78145581580700685 0.34881365920033602 0 0.77354604466818633 0.40378688774472771 0 0.77972660463949339 0.45529290596363098 0 0.73483647259922602 0.44789725365921768 0 0.77972660463949339 0.45529290596363098 0 0.73483647259922602 0.44789725365921768 0 0.73947346780852752 0.49062440112282169 0 0.77972660463949339 0.45529290596363098 0 0.77846603114747959 0.49850927265137401 0 0.73947346780852752 0.49062440112282169 0 0.81400510706333218 0.47357325943904899 0 0.77972660463949339 0.45529290596363098 0 0.77846603114747959 0.49850927265137401 0 0.81441713509985358 0.51161854125224959 0 0.81400510706333218 0.47357325943904899 0 0.77846603114747959 0.49850927265137401 0 0.81400510706333218 0.47357325943904899 0 0.81973119833356312 0.43505687159469048 0 0.77972660463949339 0.45529290596363098 0 0.79999999999999982 0.29999999999999999 0 0.77075983436335049 0.25919399014334171 0 0.81486180804364938 0.26321394949780091 0 0.79999999999999982 0.29999999999999999 0 0.74999999999999989 0.29999999999999999 0 0.79999999999999982 0.29999999999999999 0 0.77075983436335049 0.25919399014334171 0 0.74999999999999989 0.29999999999999999 0 0.79999999999999982 0.29999999999999999 0 0.78145581580700685 0.34881365920033602 0 0.74999999999999989 0.29999999999999999 0 0.78145581580700685 0.34881365920033602 0 0.73090396928863699 0.33699297293167962 0 0.74999999999999989 0.29999999999999999 0 0.77354604466818633 0.40378688774472771 0 0.78145581580700685 0.34881365920033602 0 0.74764719760526988 0.3719647154012321 0 0.78145581580700685 0.34881365920033602 0 0.74764719760526988 0.3719647154012321 0 0.73090396928863699 0.33699297293167962 0 0.81308179852519835 0.39754945808726527 0 0.78145581580700685 0.34881365920033602 0 0.83573492347052902 0.36590755630746369 0 0.79999999999999982 0.29999999999999999 0 0.78145581580700685 0.34881365920033602 0 0.82500000000000062 0.33010209762754811 0 0.78145581580700685 0.34881365920033602 0 0.82500000000000062 0.33010209762754811 0 0.83573492347052902 0.36590755630746369 0 0.82500000000000062 0.33010209762754811 0 0.83573492347052902 0.36590755630746369 0 0.87430060258887643 0.34056085888204451 0 0.86844634540301924 0.38530937474099819 0 0.83573492347052902 0.36590755630746369 0 0.87430060258887643 0.34056085888204451 0 0.82500000000000062 0.33010209762754811 0 0.87430060258887643 0.34056085888204451 0 0.84999999999999987 0.29999999999999999 0 0.87430060258887643 0.34056085888204451 0 0.84999999999999987 0.29999999999999999 0 0.89999999999999991 0.29999999999999999 0 0.84999999999999987 0.29999999999999999 0 0.81486180804364938 0.26321394949780091 0 0.8517097391133297 0.2356960729520409 0 0.84999999999999987 0.29999999999999999 0 0.89898474358614167 0.25391965591104898 0 0.8517097391133297 0.2356960729520409 0 0.84999999999999987 0.29999999999999999 0 0.89999999999999991 0.29999999999999999 0 0.79999999999999982 0.29999999999999999 0 0.82500000000000062 0.33010209762754811 0 0.84999999999999987 0.29999999999999999 0 0.79999999999999982 0.29999999999999999 0 0.84999999999999987 0.29999999999999999 0 0.81486180804364938 0.26321394949780091 0 0.79999999999999982 0.29999999999999999 0 0.84999999999999987 0.29999999999999999 0 0.84999999999999987 0.29999999999999999 0 0.89898474358614167 0.25391965591104898 0 0.89999999999999991 0.29999999999999999 0 0.89999999999999991 0.29999999999999999 0 0.94999999999999996 0.29999999999999999 0 0.89999999999999991 0.29999999999999999 0 0.92012390126144183 0.33123581297173937 0 0.94999999999999996 0.29999999999999999 0 0.89898474358614167 0.25391965591104898 0 0.89999999999999991 0.29999999999999999 0 0.94999999999999996 0.29999999999999999 0 0.89898474358614167 0.25391965591104898 0 0.94999999999999996 0.29999999999999999 0 0.94399509803921056 0.24399509803922639 0 0.86844634540301924 0.38530937474099819 0 0.87430060258887643 0.34056085888204451 0 0.91750694127107502 0.36982372220068471 0 0.87430060258887643 0.34056085888204451 0 0.92012390126144183 0.33123581297173937 0 0.91750694127107502 0.36982372220068471 0 0.87430060258887643 0.34056085888204451 0 0.89999999999999991 0.29999999999999999 0 0.92012390126144183 0.33123581297173937 0 0.92012390126144183 0.33123581297173937 0 0.91750694127107502 0.36982372220068471 0 0.95780851984364423 0.34215720972155339 0 0.95871855522754235 0.40006508612975411 0 0.91750694127107502 0.36982372220068471 0 0.95780851984364423 0.34215720972155339 0 0.92012390126144183 0.33123581297173937 0 0.95780851984364423 0.34215720972155339 0 0.94999999999999996 0.29999999999999999 0 0.95780851984364423 0.34215720972155339 0 0.94999999999999996 0.29999999999999999 0 1 0.29999999999999999 0 0.95780851984364423 0.34215720972155339 0 1 0.34999999999993492 0 1 0.29999999999999999 0 0.95871855522754235 0.40006508612975411 0 0.95780851984364423 0.34215720972155339 0 1 0.34999999999993492 0 0.94999999999999996 0.29999999999999999 0 0.97166519676951801 0.26662885509932011 0 0.94399509803921056 0.24399509803922639 0 0.94999999999999996 0.29999999999999999 0 1 0.29999999999999999 0 0.94999999999999996 0.29999999999999999 0 1 0.29999999999999999 0 0.97166519676951801 0.26662885509932011 0 1 0.29999999999999999 0 0.97166519676951801 0.26662885509932011 0 1 0.24999999999987299 0 0.97166519676951801 0.26662885509932011 0 0.97435614836740092 0.22499999999981049 0 1 0.24999999999987299 0 0.97435614836740092 0.22499999999981049 0 1 0.24999999999987299 0 1 0.19999999999974799 0 0.97435614836740092 0.22499999999981049 0 0.94399509803921056 0.24399509803922639 0 0.95391631417672862 0.19584263333809451 0 0.97166519676951801 0.26662885509932011 0 0.97435614836740092 0.22499999999981049 0 0.94399509803921056 0.24399509803922639 0 0.97435614836740092 0.22499999999981049 0 0.95391631417672862 0.19584263333809451 0 1 0.19999999999974799 0 0.95391631417672862 0.19584263333809451 0 1 0.14999999999961891 0 0.93677536231883773 0.14999999999999089 0 1 0.14999999999961891 0 0.93677536231883773 0.14999999999999089 0 0.95386563387744361 0.1041487415577465 0 0.95391631417672862 0.19584263333809451 0 1 0.19999999999974799 0 1 0.14999999999961891 0 0.95391631417672862 0.19584263333809451 0 0.93677536231883773 0.14999999999999089 0 0.90416666666668166 0.20416666666667119 0 0.93677536231883773 0.14999999999999089 0 0.88088768115941807 0.14674609810479519 0 0.90416666666668166 0.20416666666667119 0 0.93677536231883773 0.14999999999999089 0 0.88088768115941807 0.14674609810479519 0 0.90299850604006393 0.09563452813493091 0 0.88088768115941807 0.14674609810479519 0 0.90416666666668166 0.20416666666667119 0 0.85600844944842547 0.1848341897950983 0 0.89898474358614167 0.25391965591104898 0 0.90416666666668166 0.20416666666667119 0 0.8517097391133297 0.2356960729520409 0 0.89898474358614167 0.25391965591104898 0 0.94399509803921056 0.24399509803922639 0 0.90416666666668166 0.20416666666667119 0 0.94399509803921056 0.24399509803922639 0 0.95391631417672862 0.19584263333809451 0 0.90416666666668166 0.20416666666667119 0 0.94999999999986839 0 0 0.97166519676946894 0.033371144900598393 0 0.94399509803922566 0.056004901960802607 0 0.94999999999986839 0 0 1 0 0 0.97166519676946894 0.033371144900598393 0 1 0 0 1 0.049999999999896842 0 0.97166519676946894 0.033371144900598393 0 1 0.049999999999896842 0 0.97166519676946894 0.033371144900598393 0 0.97435614836748241 0.074999999999825387 0 0.97166519676946894 0.033371144900598393 0 0.94399509803922566 0.056004901960802607 0 0.97435614836748241 0.074999999999825387 0 0.94399509803922566 0.056004901960802607 0 0.97435614836748241 0.074999999999825387 0 0.95386563387744361 0.1041487415577465 0 0.97435614836748241 0.074999999999825387 0 1 0.099999999999753911 0 0.95386563387744361 0.1041487415577465 0 1 0.049999999999896842 0 0.97435614836748241 0.074999999999825387 0 1 0.099999999999753911 0 1 0.14999999999961891 0 1 0.099999999999753911 0 0.95386563387744361 0.1041487415577465 0 0.93677536231883773 0.14999999999999089 0 0.95386563387744361 0.1041487415577465 0 0.90299850604006393 0.09563452813493091 0 0.88088768115941807 0.14674609810479519 0 0.90299850604006393 0.09563452813493091 0 0.84725310900442086 0.10779732082922661 0 0.90299850604006393 0.09563452813493091 0 0.899991664607802 0.045289349238254978 0 0.85491058998398861 0.060047533455626502 0 0.94399509803922566 0.056004901960802607 0 0.95386563387744361 0.1041487415577465 0 0.90299850604006393 0.09563452813493091 0 0.94399509803922566 0.056004901960802607 0 0.90299850604006393 0.09563452813493091 0 0.899991664607802 0.045289349238254978 0 0.94999999999986839 0 0 0.94399509803922566 0.056004901960802607 0 0.899991664607802 0.045289349238254978 0 0.899991664607802 0.045289349238254978 0 0.89999999999973679 0 0 0.84999999999960507 0 0 0.94999999999986839 0 0 0.899991664607802 0.045289349238254978 0 0.89999999999973679 0 0 0.84999999999960507 0 0 0.81864958914740749 0.035890501779055867 0 0.79999999999947335 0 0 0.899991664607802 0.045289349238254978 0 0.84999999999960507 0 0 0.85491058998398861 0.060047533455626502 0 0.85491058998398861 0.060047533455626502 0 0.81864958914740749 0.035890501779055867 0 0.80185942888501827 0.074520613036224564 0 0.84999999999960507 0 0 0.85491058998398861 0.060047533455626502 0 0.81864958914740749 0.035890501779055867 0 0.85491058998398861 0.060047533455626502 0 0.84725310900442086 0.10779732082922661 0 0.80185942888501827 0.074520613036224564 0 0.90299850604006393 0.09563452813493091 0 0.85491058998398861 0.060047533455626502 0 0.84725310900442086 0.10779732082922661 0 0.84725310900442086 0.10779732082922661 0 0.80076557130237269 0.1154587552654202 0 0.80185942888501827 0.074520613036224564 0 0.84725310900442086 0.10779732082922661 0 0.80076557130237269 0.1154587552654202 0 0.82709327591102189 0.14937141670914489 0 0.80076557130237269 0.1154587552654202 0 0.76878382444651716 0.097147941686331368 0 0.80185942888501827 0.074520613036224564 0 0.76878382444651716 0.097147941686331368 0 0.77144070960558853 0.14311854477243749 0 0.72525833953073282 0.1032114801687094 0 0.80076557130237269 0.1154587552654202 0 0.76878382444651716 0.097147941686331368 0 0.77144070960558853 0.14311854477243749 0 0.76878382444651716 0.097147941686331368 0 0.80185942888501827 0.074520613036224564 0 0.7527966693318906 0.053051678021508272 0 0.81864958914740749 0.035890501779055867 0 0.80185942888501827 0.074520613036224564 0 0.78393852574753176 0.032039079577822822 0 0.80185942888501827 0.074520613036224564 0 0.78393852574753176 0.032039079577822822 0 0.7527966693318906 0.053051678021508272 0 0.78393852574753176 0.032039079577822822 0 0.7527966693318906 0.053051678021508272 0 0.74999999999934175 0 0 0.78393852574753176 0.032039079577822822 0 0.79999999999947335 0 0 0.74999999999934175 0 0 0.81864958914740749 0.035890501779055867 0 0.78393852574753176 0.032039079577822822 0 0.79999999999947335 0 0 0.81283102246527783 0.1881007222486438 0 0.8517097391133297 0.2356960729520409 0 0.79680861578956375 0.22656778056752541 0 0.81283102246527783 0.1881007222486438 0 0.8517097391133297 0.2356960729520409 0 0.85600844944842547 0.1848341897950983 0 0.81486180804364938 0.26321394949780091 0 0.8517097391133297 0.2356960729520409 0 0.79680861578956375 0.22656778056752541 0 0.90416666666668166 0.20416666666667119 0 0.8517097391133297 0.2356960729520409 0 0.85600844944842547 0.1848341897950983 0 0.88088768115941807 0.14674609810479519 0 0.85600844944842547 0.1848341897950983 0 0.82709327591102189 0.14937141670914489 0 0.88088768115941807 0.14674609810479519 0 0.84725310900442086 0.10779732082922661 0 0.82709327591102189 0.14937141670914489 0 0.81283102246527783 0.1881007222486438 0 0.85600844944842547 0.1848341897950983 0 0.82709327591102189 0.14937141670914489 0 0.81283102246527783 0.1881007222486438 0 0.77144070960558853 0.14311854477243749 0 0.76587607630038135 0.18880039518954719 0 0.81283102246527783 0.1881007222486438 0 0.82709327591102189 0.14937141670914489 0 0.77144070960558853 0.14311854477243749 0 0.80076557130237269 0.1154587552654202 0 0.82709327591102189 0.14937141670914489 0 0.77144070960558853 0.14311854477243749 0 0.77144070960558853 0.14311854477243749 0 0.76587607630038135 0.18880039518954719 0 0.72634814642510737 0.16106886917518889 0 0.76587607630038135 0.18880039518954719 0 0.79680861578956375 0.22656778056752541 0 0.75668890529066124 0.2244279804069782 0 0.81283102246527783 0.1881007222486438 0 0.76587607630038135 0.18880039518954719 0 0.79680861578956375 0.22656778056752541 0 0.77075983436335049 0.25919399014334171 0 0.81486180804364938 0.26321394949780091 0 0.79680861578956375 0.22656778056752541 0 0.77075983436335049 0.25919399014334171 0 0.79680861578956375 0.22656778056752541 0 0.75668890529066124 0.2244279804069782 0 0.77075983436335049 0.25919399014334171 0 0.75668890529066124 0.2244279804069782 0 0.72500000000000064 0.2498161764706 0 0.75668890529066124 0.2244279804069782 0 0.72500000000000064 0.2498161764706 0 0.72500000000001008 0.19776155966387679 0 0.72500000000000064 0.2498161764706 0 0.69397719155551807 0.2245125647000914 0 0.72500000000001008 0.19776155966387679 0 0.72500000000000064 0.2498161764706 0 0.69397719155551807 0.2245125647000914 0 0.67933712972090698 0.25920070958121938 0 0.69397719155551807 0.2245125647000914 0 0.72500000000001008 0.19776155966387679 0 0.6865991819015953 0.189116534044597 0 0.76587607630038135 0.18880039518954719 0 0.75668890529066124 0.2244279804069782 0 0.72500000000001008 0.19776155966387679 0 0.76587607630038135 0.18880039518954719 0 0.72500000000001008 0.19776155966387679 0 0.72634814642510737 0.16106886917518889 0 0.77144070960558853 0.14311854477243749 0 0.72634814642510737 0.16106886917518889 0 0.72525833953073282 0.1032114801687094 0 0.72634814642510737 0.16106886917518889 0 0.68391457121233579 0.14440470121196541 0 0.72525833953073282 0.1032114801687094 0 0.72500000000001008 0.19776155966387679 0 0.72634814642510737 0.16106886917518889 0 0.6865991819015953 0.189116534044597 0 0.72634814642510737 0.16106886917518889 0 0.68391457121233579 0.14440470121196541 0 0.6865991819015953 0.189116534044597 0 0.68391457121233579 0.14440470121196541 0 0.64011864159029941 0.18789607982138171 0 0.6865991819015953 0.189116534044597 0 0.68391457121233579 0.14440470121196541 0 0.65290632656860115 0.11434202593454081 0 0.6236733212988993 0.14864538214901801 0 0.68391457121233579 0.14440470121196541 0 0.64011864159029941 0.18789607982138171 0 0.6236733212988993 0.14864538214901801 0 0.64011864159029941 0.18789607982138171 0 0.65394964615507722 0.22666784374016369 0 0.59814117807200873 0.23398510860739519 0 0.65394964615507722 0.22666784374016369 0 0.59814117807200873 0.23398510860739519 0 0.62657463266645097 0.26524202571255862 0 0.69397719155551807 0.2245125647000914 0 0.65394964615507722 0.22666784374016369 0 0.67933712972090698 0.25920070958121938 0 0.64011864159029941 0.18789607982138171 0 0.65394964615507722 0.22666784374016369 0 0.6865991819015953 0.189116534044597 0 0.69397719155551807 0.2245125647000914 0 0.65394964615507722 0.22666784374016369 0 0.6865991819015953 0.189116534044597 0 0.69999999999921003 0 0 0.72683645290270404 0.027797073151180601 0 0.7010294155333181 0.056779085686491267 0 0.69999999999921003 0 0 0.7010294155333181 0.056779085686491267 0 0.66369801598854572 0.036327466368102787 0 0.7527966693318906 0.053051678021508272 0 0.74999999999934175 0 0 0.72683645290270404 0.027797073151180601 0 0.69999999999921003 0 0 0.74999999999934175 0 0 0.72683645290270404 0.027797073151180601 0 0.7527966693318906 0.053051678021508272 0 0.72683645290270404 0.027797073151180601 0 0.7010294155333181 0.056779085686491267 0 0.7010294155333181 0.056779085686491267 0 0.72525833953073282 0.1032114801687094 0 0.68330259535470161 0.10038702501083881 0 0.7527966693318906 0.053051678021508272 0 0.7010294155333181 0.056779085686491267 0 0.72525833953073282 0.1032114801687094 0 0.76878382444651716 0.097147941686331368 0 0.7527966693318906 0.053051678021508272 0 0.72525833953073282 0.1032114801687094 0 0.68391457121233579 0.14440470121196541 0 0.72525833953073282 0.1032114801687094 0 0.68330259535470161 0.10038702501083881 0 0.68330259535470161 0.10038702501083881 0 0.65290632656860115 0.11434202593454081 0 0.65408113592120842 0.073941773121567966 0 0.68391457121233579 0.14440470121196541 0 0.68330259535470161 0.10038702501083881 0 0.65290632656860115 0.11434202593454081 0 0.65290632656860115 0.11434202593454081 0 0.61956000905586006 0.1043312481793135 0 0.6236733212988993 0.14864538214901801 0 0.65290632656860115 0.11434202593454081 0 0.65408113592120842 0.073941773121567966 0 0.61956000905586006 0.1043312481793135 0 0.65408113592120842 0.073941773121567966 0 0.61940220174112337 0.047251958781050582 0 0.61956000905586006 0.1043312481793135 0 0.7010294155333181 0.056779085686491267 0 0.68330259535470161 0.10038702501083881 0 0.65408113592120842 0.073941773121567966 0 0.7010294155333181 0.056779085686491267 0 0.65408113592120842 0.073941773121567966 0 0.66369801598854572 0.036327466368102787 0 0.65408113592120842 0.073941773121567966 0 0.66369801598854572 0.036327466368102787 0 0.61940220174112337 0.047251958781050582 0 0.66369801598854572 0.036327466368102787 0 0.64999999999907843 0 0 0.61940220174112337 0.047251958781050582 0 0.69999999999921003 0 0 0.66369801598854572 0.036327466368102787 0 0.64999999999907843 0 0 0.59999999999894682 0 0 0.57396793757665954 0.037011367187645222 0 0.5499999999988151 0 0 0.64999999999907843 0 0 0.59999999999894682 0 0 0.61940220174112337 0.047251958781050582 0 0.59999999999894682 0 0 0.61940220174112337 0.047251958781050582 0 0.57396793757665954 0.037011367187645222 0 0.61940220174112337 0.047251958781050582 0 0.57396793757665954 0.037011367187645222 0 0.57667858002728545 0.078486105337742612 0 0.61940220174112337 0.047251958781050582 0 0.57667858002728545 0.078486105337742612 0 0.61956000905586006 0.1043312481793135 0 0.61956000905586006 0.1043312481793135 0 0.58516465772821369 0.11653801664834119 0 0.6236733212988993 0.14864538214901801 0 0.57667858002728545 0.078486105337742612 0 0.61956000905586006 0.1043312481793135 0 0.58516465772821369 0.11653801664834119 0 0.58516465772821369 0.11653801664834119 0 0.54979595918804436 0.1060565713905809 0 0.56202748619534593 0.15054058349222879 0 0.57667858002728545 0.078486105337742612 0 0.58516465772821369 0.11653801664834119 0 0.54979595918804436 0.1060565713905809 0 0.54979595918804436 0.1060565713905809 0 0.51076801031701946 0.1202837388510348 0 0.52375890611712683 0.059318771819432882 0 0.47881186583059909 0.093591717165689425 0 0.51076801031701946 0.1202837388510348 0 0.52375890611712683 0.059318771819432882 0 0.57667858002728545 0.078486105337742612 0 0.54979595918804436 0.1060565713905809 0 0.52375890611712683 0.059318771819432882 0 0.57396793757665954 0.037011367187645222 0 0.52375890611712683 0.059318771819432882 0 0.5499999999988151 0 0 0.57396793757665954 0.037011367187645222 0 0.57667858002728545 0.078486105337742612 0 0.52375890611712683 0.059318771819432882 0 0.49999999999869432 0 0 0.52375890611712683 0.059318771819432882 0 0.5499999999988151 0 0 0.59814117807200873 0.23398510860739519 0 0.59443395090188023 0.18455690917515069 0 0.55306006949600994 0.20198184231352201 0 0.59814117807200873 0.23398510860739519 0 0.55306006949600994 0.20198184231352201 0 0.54248833945060504 0.2520322959927106 0 0.64011864159029941 0.18789607982138171 0 0.59814117807200873 0.23398510860739519 0 0.59443395090188023 0.18455690917515069 0 0.64011864159029941 0.18789607982138171 0 0.59443395090188023 0.18455690917515069 0 0.6236733212988993 0.14864538214901801 0 0.58516465772821369 0.11653801664834119 0 0.6236733212988993 0.14864538214901801 0 0.56202748619534593 0.15054058349222879 0 0.59443395090188023 0.18455690917515069 0 0.6236733212988993 0.14864538214901801 0 0.56202748619534593 0.15054058349222879 0 0.59443395090188023 0.18455690917515069 0 0.56202748619534593 0.15054058349222879 0 0.55306006949600994 0.20198184231352201 0 0.56202748619534593 0.15054058349222879 0 0.51729576145820033 0.1683240575987815 0 0.55306006949600994 0.20198184231352201 0 0.54979595918804436 0.1060565713905809 0 0.51076801031701946 0.1202837388510348 0 0.56202748619534593 0.15054058349222879 0 0.48466639505193998 0.1421439844745814 0 0.51076801031701946 0.1202837388510348 0 0.51729576145820033 0.1683240575987815 0 0.51076801031701946 0.1202837388510348 0 0.56202748619534593 0.15054058349222879 0 0.51729576145820033 0.1683240575987815 0 0.51729576145820033 0.1683240575987815 0 0.50760557329222289 0.20700468884612061 0 0.55306006949600994 0.20198184231352201 0 0.50760557329222289 0.20700468884612061 0 0.55306006949600994 0.20198184231352201 0 0.54248833945060504 0.2520322959927106 0 0.49695729691142171 0.25014895411178018 0 0.50760557329222289 0.20700468884612061 0 0.54248833945060504 0.2520322959927106 0 0.49695729691142171 0.25014895411178018 0 0.5 0.29999999999999999 0 0.54248833945060504 0.2520322959927106 0 0.5 0.29999999999999999 0 0.54999999999999993 0.29999999999999999 0 0.52752007115234678 0.33170632466418198 0 0.5 0.29999999999999999 0 0.54999999999999993 0.29999999999999999 0 0.54248833945060504 0.2520322959927106 0 0.5 0.29999999999999999 0 0.54999999999999993 0.29999999999999999 0 0.54999999999999993 0.29999999999999999 0 0.54248833945060504 0.2520322959927106 0 0.5794309697024993 0.27124795968204829 0 0.59814117807200873 0.23398510860739519 0 0.54248833945060504 0.2520322959927106 0 0.5794309697024993 0.27124795968204829 0 0.54999999999999993 0.29999999999999999 0 0.59999999999999976 0.29999999999999999 0 0.54999999999999993 0.29999999999999999 0 0.5794309697024993 0.27124795968204829 0 0.59999999999999976 0.29999999999999999 0 0.59999999999999976 0.29999999999999999 0 0.6499999999999998 0.29999999999999999 0 0.5794309697024993 0.27124795968204829 0 0.59999999999999976 0.29999999999999999 0 0.62657463266645097 0.26524202571255862 0 0.59814117807200873 0.23398510860739519 0 0.5794309697024993 0.27124795968204829 0 0.62657463266645097 0.26524202571255862 0 0.61959173890754571 0.33832250091341232 0 0.56836770495988642 0.3523062350852913 0 0.6084546825910605 0.37989672713932537 0 0.59999999999999976 0.29999999999999999 0 0.61959173890754571 0.33832250091341232 0 0.6499999999999998 0.29999999999999999 0 0.59999999999999976 0.29999999999999999 0 0.61959173890754571 0.33832250091341232 0 0.56836770495988642 0.3523062350852913 0 0.54999999999999993 0.29999999999999999 0 0.59999999999999976 0.29999999999999999 0 0.56836770495988642 0.3523062350852913 0 0.56836770495988642 0.3523062350852913 0 0.52752007115234678 0.33170632466418198 0 0.52289427570932567 0.3932284363388488 0 0.54999999999999993 0.29999999999999999 0 0.56836770495988642 0.3523062350852913 0 0.52752007115234678 0.33170632466418198 0 0.49077833859261139 0.35229981449445641 0 0.5 0.29999999999999999 0 0.52752007115234678 0.33170632466418198 0 0.49077833859261139 0.35229981449445641 0 0.52752007115234678 0.33170632466418198 0 0.52289427570932567 0.3932284363388488 0 0.56836770495988642 0.3523062350852913 0 0.52289427570932567 0.3932284363388488 0 0.57744073070774993 0.41535148636609359 0 0.52289427570932567 0.3932284363388488 0 0.53823865529665704 0.45873898050322898 0 0.57744073070774993 0.41535148636609359 0 0.48858720058566618 0.43964267759203868 0 0.52289427570932567 0.3932284363388488 0 0.53823865529665704 0.45873898050322898 0 0.49102375406324739 0.49123754822244059 0 0.53330375813596242 0.50827942741749099 0 0.53823865529665704 0.45873898050322898 0 0.49102375406324739 0.49123754822244059 0 0.48858720058566618 0.43964267759203868 0 0.53823865529665704 0.45873898050322898 0 0.53330375813596242 0.50827942741749099 0 0.57611405284611883 0.50165903596042916 0 0.53823865529665704 0.45873898050322898 0 0.57611405284611883 0.50165903596042916 0 0.57975577671020095 0.46172033326338591 0 0.61547661924074692 0.48539576058873962 0 0.57611405284611883 0.50165903596042916 0 0.53823865529665704 0.45873898050322898 0 0.57975577671020095 0.46172033326338591 0 0.57975577671020095 0.46172033326338591 0 0.61209567303293111 0.44669033081290321 0 0.57744073070774993 0.41535148636609359 0 0.53823865529665704 0.45873898050322898 0 0.57975577671020095 0.46172033326338591 0 0.57744073070774993 0.41535148636609359 0 0.57975577671020095 0.46172033326338591 0 0.61209567303293111 0.44669033081290321 0 0.61547661924074692 0.48539576058873962 0 0.56836770495988642 0.3523062350852913 0 0.57744073070774993 0.41535148636609359 0 0.6084546825910605 0.37989672713932537 0 0.61209567303293111 0.44669033081290321 0 0.57744073070774993 0.41535148636609359 0 0.63912439215427275 0.41063340167983359 0 0.57744073070774993 0.41535148636609359 0 0.6084546825910605 0.37989672713932537 0 0.63912439215427275 0.41063340167983359 0 0.6084546825910605 0.37989672713932537 0 0.63912439215427275 0.41063340167983359 0 0.65481233915350323 0.35652751921065562 0 0.63912439215427275 0.41063340167983359 0 0.65178832218679827 0.45929119821019959 0 0.6879972333610942 0.43038561374960838 0 0.63912439215427275 0.41063340167983359 0 0.68128176404677243 0.38629093627004979 0 0.6879972333610942 0.43038561374960838 0 0.63912439215427275 0.41063340167983359 0 0.68128176404677243 0.38629093627004979 0 0.65481233915350323 0.35652751921065562 0 0.61547661924074692 0.48539576058873962 0 0.6541250972820879 0.49999999999999989 0 0.65178832218679827 0.45929119821019959 0 0.61209567303293111 0.44669033081290321 0 0.61547661924074692 0.48539576058873962 0 0.65178832218679827 0.45929119821019959 0 0.61209567303293111 0.44669033081290321 0 0.63912439215427275 0.41063340167983359 0 0.65178832218679827 0.45929119821019959 0 0.65178832218679827 0.45929119821019959 0 0.69385896817107129 0.48377516041410151 0 0.6879972333610942 0.43038561374960838 0 0.6541250972820879 0.49999999999999989 0 0.65178832218679827 0.45929119821019959 0 0.69385896817107129 0.48377516041410151 0 0.7152569930854884 0.5237994455134295 0 0.69385896817107129 0.48377516041410151 0 0.73947346780852752 0.49062440112282169 0 0.69385896817107129 0.48377516041410151 0 0.73483647259922602 0.44789725365921768 0 0.6879972333610942 0.43038561374960838 0 0.69385896817107129 0.48377516041410151 0 0.73483647259922602 0.44789725365921768 0 0.73947346780852752 0.49062440112282169 0 0.68128176404677243 0.38629093627004979 0 0.72622533758026719 0.40265885511101601 0 0.71508799138962864 0.36622814920737751 0 0.73483647259922602 0.44789725365921768 0 0.6879972333610942 0.43038561374960838 0 0.72622533758026719 0.40265885511101601 0 0.68128176404677243 0.38629093627004979 0 0.6879972333610942 0.43038561374960838 0 0.72622533758026719 0.40265885511101601 0 0.77354604466818633 0.40378688774472771 0 0.73483647259922602 0.44789725365921768 0 0.72622533758026719 0.40265885511101601 0 0.72622533758026719 0.40265885511101601 0 0.74764719760526988 0.3719647154012321 0 0.71508799138962864 0.36622814920737751 0 0.77354604466818633 0.40378688774472771 0 0.72622533758026719 0.40265885511101601 0 0.74764719760526988 0.3719647154012321 0 0.74764719760526988 0.3719647154012321 0 0.71508799138962864 0.36622814920737751 0 0.73090396928863699 0.33699297293167962 0 0.71508799138962864 0.36622814920737751 0 0.68887083591306764 0.33632058575757479 0 0.73090396928863699 0.33699297293167962 0 0.68128176404677243 0.38629093627004979 0 0.71508799138962864 0.36622814920737751 0 0.68887083591306764 0.33632058575757479 0 0.68887083591306764 0.33632058575757479 0 0.73090396928863699 0.33699297293167962 0 0.69999999999999984 0.29999999999999999 0 0.72500000000000064 0.2498161764706 0 0.74999999999999989 0.29999999999999999 0 0.69999999999999984 0.29999999999999999 0 0.74999999999999989 0.29999999999999999 0 0.69999999999999984 0.29999999999999999 0 0.73090396928863699 0.33699297293167962 0 0.74999999999999989 0.29999999999999999 0 0.69999999999999984 0.29999999999999999 0 0.77075983436335049 0.25919399014334171 0 0.72500000000000064 0.2498161764706 0 0.74999999999999989 0.29999999999999999 0 0.72500000000000064 0.2498161764706 0 0.69999999999999984 0.29999999999999999 0 0.67933712972090698 0.25920070958121938 0 0.69999999999999984 0.29999999999999999 0 0.67933712972090698 0.25920070958121938 0 0.6499999999999998 0.29999999999999999 0 0.68887083591306764 0.33632058575757479 0 0.69999999999999984 0.29999999999999999 0 0.6499999999999998 0.29999999999999999 0 0.69999999999999984 0.29999999999999999 0 0.6499999999999998 0.29999999999999999 0 0.67933712972090698 0.25920070958121938 0 0.62657463266645097 0.26524202571255862 0 0.6499999999999998 0.29999999999999999 0 0.65394964615507722 0.22666784374016369 0 0.67933712972090698 0.25920070958121938 0 0.62657463266645097 0.26524202571255862 0 0.59999999999999976 0.29999999999999999 0 0.62657463266645097 0.26524202571255862 0 0.6499999999999998 0.29999999999999999 0 0.61959173890754571 0.33832250091341232 0 0.6499999999999998 0.29999999999999999 0 0.65481233915350323 0.35652751921065562 0 0.61959173890754571 0.33832250091341232 0 0.6084546825910605 0.37989672713932537 0 0.65481233915350323 0.35652751921065562 0 0.68128176404677243 0.38629093627004979 0 0.68887083591306764 0.33632058575757479 0 0.65481233915350323 0.35652751921065562 0 0.68887083591306764 0.33632058575757479 0 0.6499999999999998 0.29999999999999999 0 0.65481233915350323 0.35652751921065562 0 
</DataArray>
</Points>
<Cells>
<DataArray type="UInt32" Name="connectivity" format="ascii">
0 1 2 3 4 5 6 7 8 9 10 11 12 13 14 15 16 17 18 19 20 21 22 23 24 25 26 27 28 29 30 31 32 33 34 35 36 37 38 39 40 41 42 43 44 45 46 47 48 49 50 51 52 53 54 55 56 57 58 59 60 61 62 63 64 65 66 67 68 69 70 71 72 73 74 75 76 77 78 79 80 81 82 83 84 85 86 87 88 89 90 91 92 93 94 95 96 97 98 99 100 101 102 103 104 105 106 107 108 109 110 111 112 113 114 115 116 117 118 119 120 121 122 123 124 125 126 127 128 129 130 131 132 133 134 135 136 137 138 139 140 141 142 143 144 145 146 147 148 149 150 151 152 153 154 155 156 157 158 159 160 161 162 163 164 165 166 167 168 169 170 171 172 173 174 175 176 177 178 179 180 181 182 183 184 185 186 187 188 189 190 191 192 193 194 195 196 197 198 199 200 201 202 203 204 205 206 207 208 209 210 211 212 213 214 215 216 217 218 219 220 221 222 223 224 225 226 227 228 229 230 231 232 233 234 235 236 237 238 239 240 241 242 243 244 245 246 247 248 249 250 251 252 253 254 255 256 257 258 259 260 261 262 263 264 265 266 267 268 269 270 271 272 273 274 275 276 277 278 279 280 281 282 283 284 285 286 287 288 289 290 291 292 293 294 295 296 297 298 299 300 301 302 303 304 305 306 307 308 309 310 311 312 313 314 315 316 317 318 319 320 321 322 323 324 325 326 327 328 329 330 331 332 333 334 335 336 337 338 339 340 341 342 343 344 345 346 347 348 349 350 351 352 353 354 355 356 357 358 359 360 361 362 363 364 365 366 367 368 369 370 371 372 373 374 375 376 377 378 379 380 381 382 383 384 385 386 387 388 389 390 391 392 393 394 395 396 397 398 399 400 401 402 403 404 405 406 407 408 409 410 411 412 413 414 415 416 417 418 419 420 421 422 423 424 425 426 427 428 429 430 431 432 433 434 435 436 437 438 439 440 441 442 443 444 445 446 447 448 449 450 451 452 453 454 455 456 457 458 459 460 461 462 463 464 465 466 467 468 469 470 471 472 473 474 475 476 477 478 479 480 481 482 483 484 485 486 487 488 489 490 491 492 493 494 495 496 497 498 499 500 501 502 503 504 505 506 507 508 509 510 511 512 513 514 515 516 517 518 519 520 521 522 523 524 525 526 527 528 529 530 531 532 533 534 535 536 537 538 539 540 541 542 543 544 545 546 547 548 549 550 551 552 553 554 555 556 557 558 559 560 561 562 563 564 565 566 567 568 569 570 571 572 573 574 575 576 577 578 579 580 581 582 583 584 585 586 587 588 589 590 591 592 593 594 595 596 597 598 599 600 601 602 603 604 605 606 607 608 609 610 611 612 613 614 615 616 617 618 619 620 621 622 623 624 625 626 627 628 629 630 631 632 633 634 635 636 637 638 639 640 641 642 643 644 645 646 647 648 649 650 651 652 653 654 655 656 657 658 659 660 661 662 663 664 665 666 667 668 669 670 671 672 673 674 675 676 677 678 679 680 681 682 683 684 685 686 687 688 689 690 691 692 693 694 695 696 697 698 699 700 701 702 703 704 705 706 707 708 709 710 711 712 713 714 715 716 717 718 719 720 721 722 723 724 725 726 727 728 729 730 731 732 733 734 735 736 737 738 739 740 741 742 743 744 745 746 747 748 749 750 751 752 753 754 755 756 757 758 759 760 761 762 763 764 765 766 767 768 769 770 771 772 773 774 775 776 777 778 779 780 781 782 783 784 785 786 787 788 789 790 791 792 793 794 795 796 797 798 799 800 801 802 803 804 805 806 807 808 809 810 811 812 813 814 815 816 817 818 819 820 821 822 823 824 825 826 827 828 829 830 831 832 833 834 835 836 837 838 839 840 841 842 843 844 845 846 847 848 849 850 851 852 853 854 855 856 857 858 859 860 861 862 863 864 865 866 867 868 869 870 871 872 873 874 875 876 877 878 879 880 881 882 883 884 885 886 887 888 889 890 891 892 893 894 895 896 897 898 899 900 901 902 903 904 905 906 907 908 909 910 911 912 913 914 915 916 917 918 919 920 921 922 923 924 925 926 927 928 929 930 931 932 933 934 935 936 937 938 939 940 941 942 943 944 945 946 947 948 949 950 951 952 953 954 955 956 957 958 959 960 961 962 963 964 965 966 967 968 969 970 971 972 973 974 975 976 977 978 979 980 981 982 983 984 985 986 987 988 989 990 991 992 993 994 995 996 997 998 999 1000 1001 1002 1003 1004 1005 1006 1007 1008 1009 1010 1011 1012 1013 1014 1015 1016 1017 1018 1019 1020 1021 1022 1023 1024 1025 1026 1027 1028 1029 1030 1031 1032 1033 1034 1035 1036 1037 1038 1039 1040 1041 1042 1043 1044 1045 1046 1047 1048 1049 1050 1051 1052 1053 1054 1055 1056 1057 1058 1059 1060 1061 1062 1063 1064 1065 1066 1067 1068 1069 1070 1071 1072 1073 1074 1075 1076 1077 1078 1079 1080 1081 1082 1083 1084 1085 1086 1087 1088 1089 1090 1091 1092 1093 1094 1095 1096 1097 1098 1099 1100 1101 1102 1103 1104 1105 1106 1107 1108 1109 1110 1111 1112 1113 1114 1115 1116 1117 1118 1119 1120 1121 1122 1123 1124 1125 1126 1127 1128 1129 1130 1131 1132 1133 1134 1135 1136 1137 1138 1139 1140 1141 1142 1143 1144 1145 1146 1147 1148 1149 1150 1151 1152 1153 1154 1155 1156 1157 1158 1159 1160 1161 1162 1163 1164 1165 1166 1167 1168 1169 1170 1171 1172 1173 1174 1175 1176 1177 1178 1179 1180 1181 1182 1183 1184 1185 1186 1187 1188 1189 1190 1191 1192 1193 1194 1195 1196 1197 1198 1199 1200 1201 1202 1203 1204 1205 1206 1207 1208 1209 1210 1211 1212 1213 1214 1215 1216 1217 1218 1219 1220 1221 1222 1223 1224 1225 1226 1227 1228 1229 1230 1231 1232 1233 1234 1235 1236 1237 1238 1239 1240 1241 1242 1243 1244 1245 1246 1247 1248 1249 1250 1251 1252 1253 1254 1255 1256 1257 1258 1259 1260 1261 1262 1263 1264 1265 1266 1267 1268 1269 1270 1271 1272 1273 1274 1275 1276 1277 1278 1279 1280 1281 1282 1283 1284 1285 1286 1287 1288 1289 1290 1291 1292 1293 1294 1295 1296 1297 1298 1299 1300 1301 1302 1303 1304 1305 1306 1307 1308 1309 1310 1311 1312 1313 1314 1315 1316 1317 1318 1319 1320 1321 1322 1323 1324 1325 1326 1327 1328 1329 1330 1331 1332 1333 1334 1335 1336 1337 1338 1339 1340 1341 1342 1343 1344 1345 1346 1347 1348 1349 1350 1351 1352 1353 1354 1355 1356 1357 1358 1359 1360 1361 1362 1363 1364 1365 1366 1367 1368 1369 1370 1371 1372 1373 1374 1375 1376 1377 1378 1379 1380 1381 1382 1383 1384 1385 1386 1387 1388 1389 1390 1391 1392 1393 1394 1395 1396 1397 1398 1399 1400 1401 1402 1403 1404 1405 1406 1407 1408 1409 1410 1411 1412 1413 1414 1415 1416 1417 1418 1419 1420 1421 1422 1423 1424 1425 1426 1427 1428 1429 1430 1431 1432 1433 1434 1435 1436 1437 1438 1439 1440 1441 1442 1443 1444 1445 1446 1447 1448 1449 1450 1451 1452 1453 1454 1455 1456 1457 1458 1459 1460 1461 1462 1463 1464 1465 1466 1467 1468 1469 1470 1471 1472 1473 1474 1475 1476 1477 1478 1479 1480 1481 1482 1483 1484 1485 1486 1487 1488 1489 1490 1491 1492 1493 1494 1495 1496 1497 1498 1499 1500 1501 1502 1503 1504 1505 1506 1507 1508 1509 1510 1511 1512 1513 1514 1515 1516 1517 1518 1519 1520 1521 1522 1523 1524 1525 1526 1527 1528 1529 1530 1531 1532 1533 1534 1535 1536 1537 1538 1539 1540 1541 1542 1543 1544 1545 1546 1547 1548 1549 1550 1551 1552 1553 1554 1555 1556 1557 1558 1559 1560 1561 1562 1563 1564 1565 1566 1567 1568 1569 1570 1571 1572 1573 1574 1575 1576 1577 1578 1579 1580 1581 1582 1583 1584 1585 1586 1587 1588 1589 1590 1591 1592 1593 1594 1595 1596 1597 1598 1599 1600 1601 1602 1603 1604 1605 1606 1607 1608 1609 1610 1611 1612 1613 1614 1615 1616 1617 1618 1619 1620 1621 1622 1623 1624 1625 1626 1627 1628 1629 1630 1631 1632 1633 1634 1635 1636 1637 1638 1639 1640 1641 1642 1643 1644 1645 1646 1647 1648 1649 1650 1651 1652 1653 1654 1655 1656 1657 1658 1659 1660 1661 1662 1663 1664 1665 1666 1667 1668 1669 1670 1671 1672 1673 1674 1675 1676 1677 1678 1679 1680 1681 1682 1683 1684 1685 1686 1687 1688 1689 1690 1691 1692 1693 1694 1695 1696 1697 1698 1699 1700 1701 1702 1703 1704 1705 1706 1707 1708 1709 1710 1711 1712 1713 1714 1715 1716 1717 1718 1719 1720 1721 1722 1723 1724 1725 1726 1727 1728 1729 1730 1731 1732 1733 1734 1735 1736 1737 1738 1739 1740 1741 1742 1743 1744 1745 1746 1747 1748 1749 1750 1751 1752 1753 1754 1755 1756 1757 1758 1759 1760 1761 1762 1763 1764 1765 1766 1767 1768 1769 1770 1771 1772 1773 1774 1775 1776 1777 1778 1779 1780 1781 1782 1783 1784 1785 1786 1787 1788 1789 1790 1791 1792 1793 1794 1795 1796 1797 1798 1799 1800 1801 1802 1803 1804 1805 1806 1807 1808 1809 1810 1811 1812 1813 1814 1815 1816 1817 1818 1819 1820 1821 1822 1823 1824 1825 1826 1827 1828 1829 1830 1831 1832 1833 1834 1835 1836 1837 1838 1839 1840 1841 1842 1843 1844 1845 1846 1847 1848 1849 1850 1851 1852 1853 1854 1855 1856 1857 1858 1859 1860 1861 1862 1863 1864 1865 1866 1867 1868 1869 1870 1871 1872 1873 1874 1875 1876 1877 1878 1879 1880 1881 1882 1883 1884 1885 1886 1887 1888 1889 1890 1891 1892 1893 1894 1895 1896 1897 1898 1899 1900 1901 1902 1903 1904 1905 1906 1907 1908 1909 1910 1911 1912 1913 1914 1915 1916 1917 1918 1919 1920 1921 1922 1923 1924 1925 1926 1927 1928 1929 1930 1931 1932 1933 1934 1935 1936 1937 1938 1939 1940 1941 1942 1943 1944 1945 1946 1947 1948 1949 1950 1951 1952 1953 1954 1955 1956 1957 1958 1959 1960 1961 1962 1963 1964 1965 1966 1967 1968 1969 1970 1971 1972 1973 1974 1975 1976 1977 1978 1979 1980 1981 1982 1983 1984 1985 1986 1987 1988 1989 1990 1991 1992 1993 1994 1995 1996 1997 1998 1999 2000 2001 2002 2003 2004 2005 2006 2007 2008 2009 2010 2011 2012 2013 2014 2015 2016 2017 2018 2019 2020 2021 2022 2023 2024 2025 2026 2027 2028 2029 2030 2031 2032 2033 2034 2035 2036 2037 2038 2039 2040 2041 2042 2043 2044 2045 2046 2047 2048 2049 2050 2051 2052 2053 2054 2055 2056 2057 2058 2059 2060 2061 2062 2063 2064 2065 2066 2067 2068 2069 2070 2071 2072 2073 2074 2075 2076 2077 2078 2079 2080 2081 2082 2083 2084 2085 2086 2087 2088 2089 2090 2091 2092 2093 2094 2095 2096 2097 2098 2099 2100 2101 2102 2103 2104 2105 2106 2107 2108 2109 2110 2111 2112 2113 2114 2115 2116 2117 2118 2119 2120 2121 2122 2123 2124 2125 2126 2127 2128 2129 2130 2131 2132 2133 2134 2135 2136 2137 2138 2139 2140 2141 2142 2143 2144 2145 2146 2147 2148 2149 2150 2151 2152 2153 2154 2155 2156 2157 2158 2159 2160 2161 2162 2163 2164 2165 2166 2167 2168 2169 2170 2171 2172 2173 2174 2175 2176 2177 2178 2179 2180 2181 2182 2183 2184 2185 2186 2187 2188 2189 2190 2191 2192 2193 2194 2195 2196 2197 2198 2199 2200 2201 2202 2203 2204 2205 2206 2207 2208 2209 2210 2211 2212 2213 2214 2215 2216 2217 2218 2219 2220 2221 2222 2223 2224 2225 2226 2227 2228 2229 2230 2231 2232 2233 2234 2235 2236 2237 2238 2239 2240 2241 2242 2243 2244 2245 2246 2247 2248 2249 2250 2251 2252 2253 2254 2255 2256 2257 2258 2259 2260 2261 2262 2263 2264 2265 2266 2267 2268 2269 2270 2271 2272 2273 2274 2275 2276 2277 2278 2279 2280 2281 2282 2283 2284 2285 2286 2287 2288 2289 2290 2291 2292 2293 2294 2295 2296 2297 2298 2299 2300 2301 2302 2303 2304 2305 2306 2307 2308 2309 2310 2311 2312 2313 2314 2315 2316 2317 2318 2319 2320 2321 2322 2323 2324 2325 2326 2327 2328 2329 2330 2331 2332 2333 2334 2335 2336 2337 2338 2339 2340 2341 2342 2343 2344 2345 2346 2347 2348 2349 2350 2351 2352 2353 2354 2355 2356 2357 2358 2359 2360 2361 2362 2363 2364 2365 2366 2367 2368 2369 2370 2371 2372 2373 2374 2375 2376 2377 2378 2379 2380 2381 2382 2383 2384 2385 2386 2387 2388 2389 2390 2391 2392 2393 2394 2395 2396 2397 2398 2399 2400 2401 2402 2403 2404 2405 2406 2407 2408 2409 2410 2411 2412 2413 2414 2415 2416 2417 2418 2419 2420 2421 2422 2423 2424 2425 2426 2427 2428 2429 2430 2431 2432 2433 2434 2435 2436 2437 2438 2439 2440 2441 2442 2443 2444 2445 2446 2447 2448 2449 2450 2451 2452 2453 2454 2455 2456 2457 2458 2459 2460 2461 2462 2463 2464 2465 2466 2467 2468 2469 2470 2471 2472 2473 2474 2475 2476 2477 2478 2479 2480 2481 2482 2483 2484 2485 2486 2487 2488 2489 2490 2491 2492 2493 2494 2495 2496 2497 2498 2499 2500 2501 2502 2503 2504 2505 2506 2507 2508 2509 2510 2511 2512 2513 2514 2515 2516 2517 2518 2519 2520 2521 2522 2523 2524 2525 2526 2527 2528 2529 2530 2531 2532 2533 2534 2535 2536 2537 2538 2539 2540 2541 2542 2543 2544 2545 2546 2547 2548 2549 2550 2551 2552 2553 2554 2555 2556 2557 2558 2559 2560 2561 2562 2563 2564 2565 2566 2567 2568 2569 2570 2571 2572 2573 2574 2575 2576 2577 2578 2579 2580 2581 2582 2583 2584 2585 2586 2587 2588 2589 2590 2591 2592 2593 2594 2595 2596 2597 2598 2599 2600 2601 2602 2603 2604 2605 2606 2607 2608 2609 2610 2611 2612 2613 2614 2615 2616 2617 2618 2619 2620 2621 2622 2623 2624 2625 2626 2627 2628 2629 2630 2631 2632 2633 2634 2635 2636 2637 2638 2639 2640 2641 2642 2643 2644 2645 2646 2647 2648 2649 2650 2651 2652 2653 2654 2655 2656 2657 2658 2659 2660 2661 2662 2663 2664 2665 2666 2667 2668 2669 2670 2671 2672 2673 2674 2675 2676 2677 2678 2679 2680 2681 2682 2683 2684 2685 2686 2687 2688 2689 2690 2691 2692 2693 2694 2695 2696 2697 2698 2699 2700 2701 2702 2703 2704 2705 2706 2707 2708 2709 2710 2711 2712 2713 2714 2715 2716 2717 2718 2719 2720 2721 2722 2723 2724 2725 2726 2727 2728 2729 2730 2731 2732 2733 2734 2735 2736 2737 2738 2739 2740 2741 2742 2743 2744 2745 2746 2747 2748 2749 2750 2751 2752 2753 2754 2755 2756 2757 2758 2759 2760 2761 2762 2763 2764 2765 2766 2767 2768 2769 2770 2771 2772 2773 2774 2775 2776 2777 2778 2779 2780 2781 2782 2783 2784 2785 2786 2787 2788 2789 2790 2791 2792 2793 2794 2795 2796 2797 2798 2799 2800 2801 2802 2803 2804 2805 2806 2807 2808 2809 2810 2811 2812 2813 2814 2815 2816 2817 2818 2819 2820 2821 2822 2823 2824 2825 2826 2827 2828 2829 2830 2831 2832 2833 2834 2835 2836 2837 2838 2839 2840 2841 2842 2843 2844 2845 2846 2847 2848 2849 2850 2851 2852 2853 2854 2855 2856 2857 2858 2859 2860 2861 2862 2863 2864 2865 2866 2867 2868 2869 2870 2871 2872 2873 2874 2875 2876 2877 2878 2879 2880 2881 2882 2883 2884 2885 2886 2887 2888 2889 2890 2891 2892 2893 2894 2895 2896 2897 2898 2899 2900 2901 2902 2903 2904 2905 2906 2907 2908 2909 2910 2911 2912 2913 2914 2915 2916 2917 2918 2919 2920 2921 2922 2923 2924 2925 2926 2927 2928 2929 2930 2931 2932 2933 2934 2935 2936 2937 2938 2939 2940 2941 2942 2943 2944 2945 2946 2947 2948 2949 2950 2951 2952 2953 2954 2955 2956 2957 2958 2959 2960 2961 2962 2963 2964 2965 2966 2967 2968 2969 2970 2971 2972 2973 2974 2975 2976 2977 2978 2979 2980 2981 2982 2983 2984 2985 2986 2987 2988 2989 2990 2991 2992 2993 2994 2995 2996 2997 2998 2999 3000 3001 3002 3003 3004 3005 3006 3007 3008 3009 3010 3011 3012 3013 3014 3015 3016 3017 3018 3019 3020 3021 3022 3023 3024 3025 3026 3027 3028 3029 3030 3031 3032 3033 3034 3035 3036 3037 3038 3039 3040 3041 3042 3043 3044 3045 3046 3047 3048 3049 3050 3051 3052 3053 3054 3055 3056 3057 3058 3059 3060 3061 3062 3063 3064 3065 3066 3067 3068 3069 3070 3071 3072 3073 3074 3075 3076 3077 3078 3079 3080 3081 3082 3083 3084 3085 3086 3087 3088 3089 3090 3091 3092 3093 3094 3095 3096 3097 3098 3099 3100 3101 3102 3103 3104 3105 3106 3107 3108 3109 3110 3111 3112 3113 3114 3115 3116 3117 3118 3119 3120 3121 3122 3123 3124 3125 3126 3127 3128 3129 3130 3131 3132 3133 3134 3135 3136 3137 3138 3139 3140 3141 
</DataArray>
<DataArray type="UInt32" Name="offsets" format="ascii">
3 6 9 12 15 18 21 24 27 30 33 36 39 42 45 48 51 54 57 60 63 66 69 72 75 78 81 84 87 90 93 96 99 102 105 108 111 114 117 120 123 126 129 132 135 138 141 144 147 150 153 156 159 162 165 168 171 174 177 180 183 186 189 192 195 198 201 204 207 210 213 216 219 222 225 228 231 234 237 240 243 246 249 252 255 258 261 264 267 270 273 276 279 282 285 288 291 294 297 300 303 306 309 312 315 318 321 324 327 330 333 336 339 342 345 348 351 354 357 360 363 366 369 372 375 378 381 384 387 390 393 396 399 402 405 408 411 414 417 420 423 426 429 432 435 438 441 444 447 450 453 456 459 462 465 468 471 474 477 480 483 486 489 492 495 498 501 504 507 510 513 516 519 522 525 528 531 534 537 540 543 546 549 552 555 558 561 564 567 570 573 576 579 582 585 588 591 594 597 600 603 606 609 612 615 618 621 624 627 630 633 636 639 642 645 648 651 654 657 660 663 666 669 672 675 678 681 684 687 690 693 696 699 702 705 708 711 714 717 720 723 726 729 732 735 738 741 744 747 750 753 756 759 762 765 768 771 774 777 780 783 786 789 792 795 798 801 804 807 810 813 816 819 822 825 828 831 834 837 840 843 846 849 852 855 858 861 864 867 870 873 876 879 882 885 888 891 894 897 900 903 906 909 912 915 918 921 924 927 930 933 936 939 942 945 948 951 954 957 960 963 966 969 972 975 978 981 984 987 990 993 996 999 1002 1005 1008 1011 1014 1017 1020 1023 1026 1029 1032 1035 1038 1041 1044 1047 1050 1053 1056 1059 1062 1065 1068 1071 1074 1077 1080 1083 1086 1089 1092 1095 1098 1101 1104 1107 1110 1113 1116 1119 1122 1125 1128 1131 1134 1137 1140 1143 1146 1149 1152 1155 1158 1161 1164 1167 1170 1173 1176 1179 1182 1185 1188 1191 1194 1197 1200 1203 1206 1209 1212 1215 1218 1221 1224 1227 1230 1233 1236 1239 1242 1245 1248 1251 1254 1257 1260 1263 1266 1269 1272 1275 1278 1281 1284 1287 1290 1293 1296 1299 1302 1305 1308 1311 1314 1317 1320 1323 1326 1329 1332 1335 1338 1341 1344 1347 1350 1353 1356 1359 1362 1365 1368 1371 1374 1377 1380 1383 1386 1389 1392 1395 1398 1401 1404 1407 1410 1413 1416 1419 1422 1425 1428 1431 1434 1437 1440 1443 1446 1449 1452 1455 1458 1461 1464 1467 1470 1473 1476 1479 1482 1485 1488 1491 1494 1497 1500 1503 1506 1509 1512 1515 1518 1521 1524 1527 1530 1533 1536 1539 1542 1545 1548 1551 1554 1557 1560 1563 1566 1569 1572 1575 1578 1581 1584 1587 1590 1593 1596 1599 1602 1605 1608 1611 1614 1616 1619 1622 1624 1627 1630 1632 1635 1638 1641 1644 1647 1650 1653 1656 1659 1662 1665 1668 1671 1673 1676 1679 1682 1685 1688 1690 1693 1696 1699 1702 1705 1708 1711 1714 1717 1720 1723 1726 1729 1732 1735 1738 1741 1744 1747 1750 1753 1756 1759 1762 1765 1768 1771 1774 1777 1780 1783 1786 1789 1792 1795 1798 1801 1804 1807 1810 1813 1816 1819 1822 1825 1828 1831 1834 1837 1840 1843 1846 1849 1852 1855 1858 1861 1864 1867 1870 1873 1876 1879 1882 1885 1888 1891 1894 1897 1900 1903 1906 1909 1912 1915 1918 1921 1924 1927 1930 1933 1936 1939 1942 1945 1948 1951 1954 1957 1960 1963 1966 1969 1972 1975 1978 1981 1984 1987 1990 1993 1996 1999 2002 2005 2008 2011 2014 2017 2020 2023 2026 2029 2032 2035 2038 2041 2044 2047 2050 2053 2056 2059 2062 2065 2068 2071 2074 2077 2080 2083 2086 2089 2092 2095 2098 2101 2104 2107 2110 2113 2116 2119 2122 2125 2128 2131 2134 2137 2140 2143 2146 2149 2152 2155 2158 2161 2164 2167 2170 2173 2176 2179 2182 2185 2188 2191 2194 2196 2199 2202 2205 2207 2210 2213 2215 2218 2221 2224 2227 2230 2233 2236 2239 2242 2245 2248 2250 2253 2256 2259 2262 2264 2267 2270 2273 2276 2279 2282 2285 2288 2291 2294 2297 2300 2303 2306 2309 2312 2315 2318 2321 2324 2327 2330 2333 2336 2339 2342 2345 2348 2351 2354 2357 2360 2363 2366 2369 2372 2375 2378 2381 2384 2387 2390 2393 2396 2399 2402 2405 2408 2411 2414 2417 2420 2423 2426 2429 2432 2435 2438 2440 2443 2446 2449 2452 2455 2458 2461 2464 2467 2470 2473 2476 2479 2482 2484 2487 2490 2492 2495 2497 2500 2503 2506 2509 2512 2515 2518 2521 2524 2527 2530 2533 2536 2538 2541 2544 2547 2550 2553 2556 2559 2562 2565 2568 2571 2574 2577 2580 2583 2586 2589 2592 2595 2598 2601 2604 2607 2610 2613 2616 2619 2622 2625 2628 2631 2634 2637 2640 2643 2646 2649 2652 2655 2658 2661 2664 2667 2670 2673 2676 2679 2682 2685 2688 2691 2694 2697 2700 2703 2706 2709 2712 2715 2718 2721 2724 2727 2730 2733 2736 2739 2742 2745 2748 2751 2754 2757 2760 2763 2766 2769 2772 2775 2778 2781 2784 2787 2790 2793 2796 2799 2802 2805 2808 2811 2814 2817 2820 2823 2826 2829 2832 2835 2838 2841 2844 2847 2850 2853 2856 2859 2862 2865 2868 2871 2874 2877 2880 2883 2886 2889 2892 2895 2898 2901 2904 2907 2910 2913 2916 2919 2922 2925 2928 2931 2934 2937 2940 2943 2946 2948 2951 2954 2956 2959 2961 2964 2967 2970 2973 2976 2979 2982 2985 2988 2991 2994 2997 3000 3003 3006 3009 3012 3015 3018 3021 3024 3027 3030 3033 3036 3039 3042 3045 3048 3051 3054 3057 3060 3063 3066 3069 3072 3075 3078 3081 3084 3087 3090 3093 3096 3099 3102 3104 3107 3110 3113 3116 3119 3121 3124 3127 3130 3133 3136 3139 3142 
</DataArray>
<DataArray type="UInt32" Name="types" format="ascii">
5 5 5 5 5 5 5 5 5 5 5 5 5 5 5 5 5 5 5 5 5 5 5 5 5 5 5 5 5 5 5 5 5 5 5 5 5 5 5 5 5 5 5 5 5 5 5 5 5 5 5 5 5 5 5 5 5 5 5 5 5 5 5 5 5 5 5 5 5 5 5 5 5 5 5 5 5 5 5 5 5 5 5 5 5 5 5 5 5 5 5 5 5 5 5 5 5 5 5 5 5 5 5 5 5 5 5 5 5 5 5 5 5 5 5 5 5 5 5 5 5 5 5 5 5 5 5 5 5 5 5 5 5 5 5 5 5 5 5 5 5 5 5 5 5 5 5 5 5 5 5 5 5 5 5 5 5 5 5 5 5 5 5 5 5 5 5 5 5 5 5 5 5 5 5 5 5 5 5 5 5 5 5 5 5 5 5 5 5 5 5 5 5 5 5 5 5 5 5 5 5 5 5 5 5 5 5 5 5 5 5 5 5 5 5 5 5 5 5 5 5 5 5 5 5 5 5 5 5 5 5 5 5 5 5 5 5 5 5 5 5 5 5 5 5 5 5 5 5 5 5 5 5 5 5 5 5 5 5 5 5 5 5 5 5 5 5 5 5 5 5 5 5 5 5 5 5 5 5 5 5 5 5 5 5 5 5 5 5 5 5 5 5 5 5 5 5 5 5 5 5 5 5 5 5 5 5 5 5 5 5 5 5 5 5 5 5 5 5 5 5 5 5 5 5 5 5 5 5 5 5 5 5 5 5 5 5 5 5 5 5 5 5 5 5 5 5 5 5 5 5 5 5 5 5 5 5 5 5 5 5 5 5 5 5 5 5 5 5 5 5 5 5 5 5 5 5 5 5 5 5 5 5 5 5 5 5 5 5 5 5 5 5 5 5 5 5 5 5 5 5 5 5 5 5 5 5 5 5 5 5 5 5 5 5 5 5 5 5 5 5 5 5 5 5 5 5 5 5 5 5 5 5 5 5 5 5 5 5 5 5 5 5 5 5 5 5 5 5 5 5 5 5 5 5 5 5 5 5 5 5 5 5 5 5 5 5 5 5 5 5 5 5 5 5 5 5 5 5 5 5 5 5 5 5 5 5 5 5 5 5 5 5 5 5 5 5 5 5 5 5 5 5 5 5 5 5 5 5 5 5 5 5 5 5 5 5 5 5 5 5 5 5 5 5 5 5 5 5 5 5 5 5 5 5 5 5 5 3 5 5 3 5 5 3 5 5 5 5 5 5 5 5 5 5 5 5 5 3 5 5 5 5 5 3 5 5 5 5 5 5 5 5 5 5 5 5 5 5 5 5 5 5 5 5 5 5 5 5 5 5 5 5 5 5 5 5 5 5 5 5 5 5 5 5 5 5 5 5 5 5 5 5 5 5 5 5 5 5 5 5 5 5 5 5 5 5 5 5 5 5 5 5 5 5 5 5 5 5 5 5 5 5 5 5 5 5 5 5 5 5 5 5 5 5 5 5 5 5 5 5 5 5 5 5 5 5 5 5 5 5 5 5 5 5 5 5 5 5 5 5 5 5 5 5 5 5 5 5 5 5 5 5 5 5 5 5 5 5 5 5 5 5 5 5 5 5 5 5 5 5 5 5 5 5 5 5 5 5 5 5 5 5 5 5 5 5 5 5 5 5 5 5 3 5 5 5 3 5 5 3 5 5 5 5 5 5 5 5 5 5 5 3 5 5 5 5 3 5 5 5 5 5 5 5 5 5 5 5 5 5 5 5 5 5 5 5 5 5 5 5 5 5 5 5 5 5 5 5 5 5 5 5 5 5 5 5 5 5 5 5 5 5 5 5 5 5 5 5 5 5 5 5 5 5 5 3 5 5 5 5 5 5 5 5 5 5 5 5 5 5 3 5 5 3 5 3 5 5 5 5 5 5 5 5 5 5 5 5 5 3 5 5 5 5 5 5 5 5 5 5 5 5 5 5 5 5 5 5 5 5 5 5 5 5 5 5 5 5 5 5 5 5 5 5 5 5 5 5 5 5 5 5 5 5 5 5 5 5 5 5 5 5 5 5 5 5 5 5 5 5 5 5 5 5 5 5 5 5 5 5 5 5 5 5 5 5 5 5 5 5 5 5 5 5 5 5 5 5 5 5 5 5 5 5 5 5 5 5 5 5 5 5 5 5 5 5 5 5 5 5 5 5 5 5 5 5 5 5 5 5 5 5 5 5 5 5 5 5 5 5 5 5 5 5 5 5 3 5 5 3 5 3 5 5 5 5 5 5 5 5 5 5 5 5 5 5 5 5 5 5 5 5 5 5 5 5 5 5 5 5 5 5 5 5 5 5 5 5 5 5 5 5 5 5 5 5 5 5 5 3 5 5 5 5 5 3 5 5 5 5 5 5 5 
</DataArray>
</Cells>
<PointData Scalars="" Vectors="displacement," Tensors="">
<DataArray type="Float64" Name="displacement" NumberOfComponents="3" format="ascii">
-8.2142129438726827e-07 9.931405738283362e-08 0 -1.7225642826643342e-09 -7.1131938885389396e-10 0 -1.8774594304249258e-06 -1.9735851235120666e-07 0 -8.2142129438726827e-07 9.931405738283362e-08 0 -1.7225642826643342e-09 -7.1131938885389396e-10 0 -1.3967448538753234e-09 4.3985939803740748e-10 0 -8.2142129438726827e-07 9.931405738283362e-08 0 -1.8774594304249258e-06 -1.9735851235120666e-07 0 -1.7721788079548349e-06 5.1388808116871121e-07 0 -8.2142129438726827e-07 9.931405738283362e-08 0 -1.7721788079548349e-06 5.1388808116871121e-07 0 -1.3967448538753234e-09 4.3985939803740748e-10 0 -1.3967448538753234e-09 4.3985939803740748e-10 0 -1.3354421727093598e-09 1.8612849902337002e-10 0 -1.0964053031125879e-06 8.5594236668694995e-07 0 -1.3354421727093598e-09 1.8612849902337002e-10 0 -1.0964053031125879e-06 8.5594236668694995e-07 0 -6.7676172806229705e-10 7.4976972187037715e-10 0 -1.7721788079548349e-06 5.1388808116871121e-07 0 -1.0964053031125879e-06 8.5594236668694995e-07 0 -2.4004605308031476e-06 1.1895966409111107e-06 0 -1.7721788079548349e-06 5.1388808116871121e-07 0 -1.3967448538753234e-09 4.3985939803740748e-10 0 -1.0964053031125879e-06 8.5594236668694995e-07 0 -1.0964053031125879e-06 8.5594236668694995e-07 0 -2.4004605308031476e-06 1.1895966409111107e-06 0 -1.2206368068849884e-06 1.4172147553653889e-06 0 -2.4004605308031476e-06 1.1895966409111107e-06 0 -1.2206368068849884e-06 1.4172147553653889e-06 0 -2.3779896317254339e-06 1.6738470199899828e-06 0 -2.4004605308031476e-06 1.1895966409111107e-06 0 -3.6785835183391587e-06 1.4024886341881503e-06 0 -2.3779896317254339e-06 1.6738470199899828e-06 0 -3.6785835183391587e-06 1.4024886341881503e-06 0 -2.3779896317254339e-06 1.6738470199899828e-06 0 -2.8182174958949111e-06 1.8214201513010016e-06 0 -3.6785835183391587e-06 1.4024886341881503e-06 0 -3.8078353545678508e-06 7.2009783017095958e-07 0 -5.3452267940296958e-06 8.9577330533190912e-07 0 -2.4004605308031476e-06 1.1895966409111107e-06 0 -3.6785835183391587e-06 1.4024886341881503e-06 0 -3.8078353545678508e-06 7.2009783017095958e-07 0 -3.8078353545678508e-06 7.2009783017095958e-07 0 -4.0740762101938795e-06 1.3488059333824106e-08 0 -6.6997508462872547e-06 -8.9040353722306941e-08 0 -1.8774594304249258e-06 -1.9735851235120666e-07 0 -1.7721788079548349e-06 5.1388808116871121e-07 0 -4.0740762101938795e-06 1.3488059333824106e-08 0 -1.7721788079548349e-06 5.1388808116871121e-07 0 -3.8078353545678508e-06 7.2009783017095958e-07 0 -4.0740762101938795e-06 1.3488059333824106e-08 0 -1.7721788079548349e-06 5.1388808116871121e-07 0 -2.4004605308031476e-06 1.1895966409111107e-06 0 -3.8078353545678508e-06 7.2009783017095958e-07 0 -1.2366137641458541e-07 1.2038629668166714e-06 0 -3.9125352708548306e-10 4.8643735978660338e-10 0 3.4039023557420773e-11 6.1296242252573804e-10 0 -1.2366137641458541e-07 1.2038629668166714e-06 0 -3.9125352708548306e-10 4.8643735978660338e-10 0 -4.0778209923986078e-07 1.014637659477843e-06 0 -1.2366137641458541e-07 1.2038629668166714e-06 0 -4.0778209923986078e-07 1.014637659477843e-06 0 -6.8349859571962319e-07 1.8050347684324607e-06 0 -4.0778209923986078e-07 1.014637659477843e-06 0 -6.7676172806229705e-10 7.4976972187037715e-10 0 -1.2206368068849884e-06 1.4172147553653889e-06 0 -1.0964053031125879e-06 8.5594236668694995e-07 0 -6.7676172806229705e-10 7.4976972187037715e-10 0 -1.2206368068849884e-06 1.4172147553653889e-06 0 -4.0778209923986078e-07 1.014637659477843e-06 0 -1.2206368068849884e-06 1.4172147553653889e-06 0 -6.8349859571962319e-07 1.8050347684324607e-06 0 -3.9125352708548306e-10 4.8643735978660338e-10 0 -4.0778209923986078e-07 1.014637659477843e-06 0 -6.7676172806229705e-10 7.4976972187037715e-10 0 -1.2206368068849884e-06 1.4172147553653889e-06 0 -2.3779896317254339e-06 1.6738470199899828e-06 0 -1.6379814878488283e-06 1.9003195232582769e-06 0 -2.3779896317254339e-06 1.6738470199899828e-06 0 -1.6379814878488283e-06 1.9003195232582769e-06 0 -2.8182174958949111e-06 1.8214201513010016e-06 0 -1.2206368068849884e-06 1.4172147553653889e-06 0 -1.6379814878488283e-06 1.9003195232582769e-06 0 -6.8349859571962319e-07 1.8050347684324607e-06 0 -6.8349859571962319e-07 1.8050347684324607e-06 0 8.247327334083834e-08 1.9623347508919205e-06 0 -9.9909023915486214e-07 2.0976429270219831e-06 0 -1.6379814878488283e-06 1.9003195232582769e-06 0 -6.8349859571962319e-07 1.8050347684324607e-06 0 -9.9909023915486214e-07 2.0976429270219831e-06 0 -1.2366137641458541e-07 1.2038629668166714e-06 0 -6.8349859571962319e-07 1.8050347684324607e-06 0 8.247327334083834e-08 1.9623347508919205e-06 0 -1.2366137641458541e-07 1.2038629668166714e-06 0 8.247327334083834e-08 1.9623347508919205e-06 0 2.7032003146715837e-07 1.2852683902299738e-06 0 8.247327334083834e-08 1.9623347508919205e-06 0 8.9309416255499491e-08 2.0597656141825557e-06 0 -9.9909023915486214e-07 2.0976429270219831e-06 0 -1.3662760360433618e-07 1.8424444553119363e-06 0 8.9309416255499491e-08 2.0597656141825557e-06 0 -9.9909023915486214e-07 2.0976429270219831e-06 0 -1.3662760360433618e-07 1.8424444553119363e-06 0 -9.9909023915486214e-07 2.0976429270219831e-06 0 -1.9311124429214982e-06 1.7282266095200275e-06 0 -1.9311124429214982e-06 1.7282266095200275e-06 0 -2.8182174958949111e-06 1.8214201513010016e-06 0 -3.9082708655091168e-06 1.3701137620134273e-06 0 -1.6379814878488283e-06 1.9003195232582769e-06 0 -9.9909023915486214e-07 2.0976429270219831e-06 0 -2.8182174958949111e-06 1.8214201513010016e-06 0 -9.9909023915486214e-07 2.0976429270219831e-06 0 -1.9311124429214982e-06 1.7282266095200275e-06 0 -2.8182174958949111e-06 1.8214201513010016e-06 0 -2.8182174958949111e-06 1.8214201513010016e-06 0 -3.9082708655091168e-06 1.3701137620134273e-06 0 -4.6581180967565875e-06 1.3018729456606219e-06 0 -3.9082708655091168e-06 1.3701137620134273e-06 0 -5.5594947586877744e-06 3.7414154566801707e-07 0 -2.6939832944076906e-06 1.014154722583881e-06 0 -5.5594947586877744e-06 3.7414154566801707e-07 0 -2.6939832944076906e-06 1.014154722583881e-06 0 -4.4412549912532172e-06 -2.172900763561206e-07 0 -2.6939832944076906e-06 1.014154722583881e-06 0 -4.4412549912532172e-06 -2.172900763561206e-07 0 -2.4047692120366151e-06 -2.9301772480294712e-07 0 -1.9311124429214982e-06 1.7282266095200275e-06 0 -3.9082708655091168e-06 1.3701137620134273e-06 0 -2.6939832944076906e-06 1.014154722583881e-06 0 -1.3662760360433618e-07 1.8424444553119363e-06 0 -1.9311124429214982e-06 1.7282266095200275e-06 0 -6.9607034754293541e-07 1.0490460932881378e-06 0 -1.9311124429214982e-06 1.7282266095200275e-06 0 -2.6939832944076906e-06 1.014154722583881e-06 0 -6.9607034754293541e-07 1.0490460932881378e-06 0 -2.6939832944076906e-06 1.014154722583881e-06 0 -6.9607034754293541e-07 1.0490460932881378e-06 0 -2.4047692120366151e-06 -2.9301772480294712e-07 0 -6.9607034754293541e-07 1.0490460932881378e-06 0 1.1560298440057771e-06 2.8721451698426463e-07 0 1.2641636611896597e-06 1.3586396020250227e-06 0 -1.3662760360433618e-07 1.8424444553119363e-06 0 -6.9607034754293541e-07 1.0490460932881378e-06 0 1.2641636611896597e-06 1.3586396020250227e-06 0 -7.7122127424880734e-06 1.4049681926647889e-07 0 -6.6997508462872547e-06 -8.9040353722306941e-08 0 -5.3452267940296958e-06 8.9577330533190912e-07 0 -7.7122127424880734e-06 1.4049681926647889e-07 0 -5.3452267940296958e-06 8.9577330533190912e-07 0 -6.6760859864794267e-06 6.0838819357060493e-07 0 -7.7122127424880734e-06 1.4049681926647889e-07 0 -6.6997508462872547e-06 -8.9040353722306941e-08 0 -9.7745902645694389e-06 -8.9715616875712579e-07 0 -3.8078353545678508e-06 7.2009783017095958e-07 0 -6.6997508462872547e-06 -8.9040353722306941e-08 0 -5.3452267940296958e-06 8.9577330533190912e-07 0 -3.6785835183391587e-06 1.4024886341881503e-06 0 -5.3452267940296958e-06 8.9577330533190912e-07 0 -4.6581180967565875e-06 1.3018729456606219e-06 0 -3.6785835183391587e-06 1.4024886341881503e-06 0 -2.8182174958949111e-06 1.8214201513010016e-06 0 -4.6581180967565875e-06 1.3018729456606219e-06 0 -3.9082708655091168e-06 1.3701137620134273e-06 0 -4.6581180967565875e-06 1.3018729456606219e-06 0 -6.6760859864794267e-06 6.0838819357060493e-07 0 -5.3452267940296958e-06 8.9577330533190912e-07 0 -4.6581180967565875e-06 1.3018729456606219e-06 0 -6.6760859864794267e-06 6.0838819357060493e-07 0 -3.9082708655091168e-06 1.3701137620134273e-06 0 -5.5594947586877744e-06 3.7414154566801707e-07 0 -6.6760859864794267e-06 6.0838819357060493e-07 0 -5.5594947586877744e-06 3.7414154566801707e-07 0 -6.6760859864794267e-06 6.0838819357060493e-07 0 -8.2145753006424396e-06 -4.835464043382518e-07 0 -5.5594947586877744e-06 3.7414154566801707e-07 0 -8.2145753006424396e-06 -4.835464043382518e-07 0 -7.57089215083941e-06 -1.332238181130513e-06 0 -6.6760859864794267e-06 6.0838819357060493e-07 0 -8.2145753006424396e-06 -4.835464043382518e-07 0 -9.638726736068454e-06 -6.8172850585690928e-07 0 -8.2145753006424396e-06 -4.835464043382518e-07 0 -9.638726736068454e-06 -6.8172850585690928e-07 0 -1.1488826228330496e-05 -2.219309298998688e-06 0 -7.7122127424880734e-06 1.4049681926647889e-07 0 -6.6760859864794267e-06 6.0838819357060493e-07 0 -9.638726736068454e-06 -6.8172850585690928e-07 0 -7.7122127424880734e-06 1.4049681926647889e-07 0 -9.638726736068454e-06 -6.8172850585690928e-07 0 -9.7745902645694389e-06 -8.9715616875712579e-07 0 -9.638726736068454e-06 -6.8172850585690928e-07 0 -9.7745902645694389e-06 -8.9715616875712579e-07 0 -1.3225723884808507e-05 -2.4556602896008601e-06 0 -1.3225723884808507e-05 -2.4556602896008601e-06 0 -1.1488826228330496e-05 -2.219309298998688e-06 0 -1.6855248920473379e-05 -4.9036885548397975e-06 0 -9.638726736068454e-06 -6.8172850585690928e-07 0 -1.3225723884808507e-05 -2.4556602896008601e-06 0 -1.1488826228330496e-05 -2.219309298998688e-06 0 -1.1488826228330496e-05 -2.219309298998688e-06 0 -1.6855248920473379e-05 -4.9036885548397975e-06 0 -1.5428955922150923e-05 -5.325585462796877e-06 0 -1.6855248920473379e-05 -4.9036885548397975e-06 0 -1.5428955922150923e-05 -5.325585462796877e-06 0 -2.1033131133012316e-05 -8.4321667464947653e-06 0 -1.5428955922150923e-05 -5.325585462796877e-06 0 -1.8723906020361763e-05 -8.4398083442320013e-06 0 -1.3364689358597494e-05 -6.6090273400253723e-06 0 -1.8723906020361763e-05 -8.4398083442320013e-06 0 -1.3364689358597494e-05 -6.6090273400253723e-06 0 -1.867462285787321e-05 -1.1322864426834072e-05 0 -1.5428955922150923e-05 -5.325585462796877e-06 0 -1.8723906020361763e-05 -8.4398083442320013e-06 0 -2.1033131133012316e-05 -8.4321667464947653e-06 0 -1.8723906020361763e-05 -8.4398083442320013e-06 0 -2.1033131133012316e-05 -8.4321667464947653e-06 0 -2.5601754807027524e-05 -1.3218160373936841e-05 0 -1.3364689358597494e-05 -6.6090273400253723e-06 0 -8.162163162382296e-06 -6.5269272628387991e-06 0 -1.2336488634280763e-05 -1.0397054591730774e-05 0 -1.3364689358597494e-05 -6.6090273400253723e-06 0 -8.7306277158087476e-06 -3.8068888392054175e-06 0 -8.162163162382296e-06 -6.5269272628387991e-06 0 -1.5428955922150923e-05 -5.325585462796877e-06 0 -1.3364689358597494e-05 -6.6090273400253723e-06 0 -1.1322225673122568e-05 -3.6096785978594112e-06 0 -1.3364689358597494e-05 -6.6090273400253723e-06 0 -8.7306277158087476e-06 -3.8068888392054175e-06 0 -1.1322225673122568e-05 -3.6096785978594112e-06 0 -8.7306277158087476e-06 -3.8068888392054175e-06 0 -1.1322225673122568e-05 -3.6096785978594112e-06 0 -7.57089215083941e-06 -1.332238181130513e-06 0 -1.1488826228330496e-05 -2.219309298998688e-06 0 -1.5428955922150923e-05 -5.325585462796877e-06 0 -1.1322225673122568e-05 -3.6096785978594112e-06 0 -1.1488826228330496e-05 -2.219309298998688e-06 0 -1.1322225673122568e-05 -3.6096785978594112e-06 0 -7.57089215083941e-06 -1.332238181130513e-06 0 -8.2145753006424396e-06 -4.835464043382518e-07 0 -1.1488826228330496e-05 -2.219309298998688e-06 0 -7.57089215083941e-06 -1.332238181130513e-06 0 -5.5594947586877744e-06 3.7414154566801707e-07 0 -7.57089215083941e-06 -1.332238181130513e-06 0 -4.4412549912532172e-06 -2.172900763561206e-07 0 -7.57089215083941e-06 -1.332238181130513e-06 0 -4.4412549912532172e-06 -2.172900763561206e-07 0 -5.0947178871593674e-06 -1.8034190948685003e-06 0 -4.4412549912532172e-06 -2.172900763561206e-07 0 -5.0947178871593674e-06 -1.8034190948685003e-06 0 -2.4047692120366151e-06 -2.9301772480294712e-07 0 -5.0947178871593674e-06 -1.8034190948685003e-06 0 -2.3688395837337107e-06 -2.5050349813640771e-06 0 -5.4115216296916407e-06 -3.9236175090183686e-06 0 -5.0947178871593674e-06 -1.8034190948685003e-06 0 -2.4047692120366151e-06 -2.9301772480294712e-07 0 -2.3688395837337107e-06 -2.5050349813640771e-06 0 -8.7306277158087476e-06 -3.8068888392054175e-06 0 -7.57089215083941e-06 -1.332238181130513e-06 0 -5.0947178871593674e-06 -1.8034190948685003e-06 0 -6.9607034754293541e-07 1.0490460932881378e-06 0 -2.0329486319468237e-07 -7.702708840178382e-07 0 1.1560298440057771e-06 2.8721451698426463e-07 0 -6.9607034754293541e-07 1.0490460932881378e-06 0 -2.0329486319468237e-07 -7.702708840178382e-07 0 -2.4047692120366151e-06 -2.9301772480294712e-07 0 -2.0329486319468237e-07 -7.702708840178382e-07 0 -2.4047692120366151e-06 -2.9301772480294712e-07 0 -2.3688395837337107e-06 -2.5050349813640771e-06 0 -2.0329486319468237e-07 -7.702708840178382e-07 0 6.8341944824987379e-07 -3.6889883410660564e-06 0 2.2518414197683408e-06 -1.133707612703533e-06 0 -2.0329486319468237e-07 -7.702708840178382e-07 0 6.8341944824987379e-07 -3.6889883410660564e-06 0 -2.3688395837337107e-06 -2.5050349813640771e-06 0 6.8341944824987379e-07 -3.6889883410660564e-06 0 -2.3688395837337107e-06 -2.5050349813640771e-06 0 -3.4543629176302336e-06 -5.4951355269118924e-06 0 6.8341944824987379e-07 -3.6889883410660564e-06 0 -3.4543629176302336e-06 -5.4951355269118924e-06 0 -4.789568758105985e-07 -7.6511686234795171e-06 0 6.8341944824987379e-07 -3.6889883410660564e-06 0 -4.789568758105985e-07 -7.6511686234795171e-06 0 3.57959370634692e-06 -6.305231532505609e-06 0 -8.7306277158087476e-06 -3.8068888392054175e-06 0 -5.0947178871593674e-06 -1.8034190948685003e-06 0 -5.4115216296916407e-06 -3.9236175090183686e-06 0 -8.7306277158087476e-06 -3.8068888392054175e-06 0 -5.4115216296916407e-06 -3.9236175090183686e-06 0 -8.162163162382296e-06 -6.5269272628387991e-06 0 -2.3688395837337107e-06 -2.5050349813640771e-06 0 -5.4115216296916407e-06 -3.9236175090183686e-06 0 -3.4543629176302336e-06 -5.4951355269118924e-06 0 -3.4543629176302336e-06 -5.4951355269118924e-06 0 -8.162163162382296e-06 -6.5269272628387991e-06 0 -5.9863897689699359e-06 -9.3790130498361796e-06 0 -5.4115216296916407e-06 -3.9236175090183686e-06 0 -3.4543629176302336e-06 -5.4951355269118924e-06 0 -8.162163162382296e-06 -6.5269272628387991e-06 0 -8.162163162382296e-06 -6.5269272628387991e-06 0 -5.9863897689699359e-06 -9.3790130498361796e-06 0 -1.2336488634280763e-05 -1.0397054591730774e-05 0 -5.9863897689699359e-06 -9.3790130498361796e-06 0 -2.3737303849772489e-06 -1.2129343407266589e-05 0 -9.9584047762170579e-06 -1.5198548786855884e-05 0 -5.9863897689699359e-06 -9.3790130498361796e-06 0 -9.9584047762170579e-06 -1.5198548786855884e-05 0 -1.2336488634280763e-05 -1.0397054591730774e-05 0 -4.789568758105985e-07 -7.6511686234795171e-06 0 3.0496293904982672e-06 -1.0425032173091784e-05 0 3.57959370634692e-06 -6.305231532505609e-06 0 -3.4543629176302336e-06 -5.4951355269118924e-06 0 -5.9863897689699359e-06 -9.3790130498361796e-06 0 -4.789568758105985e-07 -7.6511686234795171e-06 0 -5.9863897689699359e-06 -9.3790130498361796e-06 0 -4.789568758105985e-07 -7.6511686234795171e-06 0 -2.3737303849772489e-06 -1.2129343407266589e-05 0 -4.789568758105985e-07 -7.6511686234795171e-06 0 -2.3737303849772489e-06 -1.2129343407266589e-05 0 3.0496293904982672e-06 -1.0425032173091784e-05 0 -2.3737303849772489e-06 -1.2129343407266589e-05 0 1.2923906213353669e-06 -1.5799726007097426e-05 0 3.0496293904982672e-06 -1.0425032173091784e-05 0 -2.3737303849772489e-06 -1.2129343407266589e-05 0 1.2923906213353669e-06 -1.5799726007097426e-05 0 -4.1898730023739206e-06 -1.8580089818731379e-05 0 -4.1898730023739206e-06 -1.8580089818731379e-05 0 -7.2499109780695986e-06 -2.7017908887412024e-05 0 -1.4101217887849508e-06 -2.3923199823395109e-05 0 1.2923906213353669e-06 -1.5799726007097426e-05 0 -4.1898730023739206e-06 -1.8580089818731379e-05 0 -1.4101217887849508e-06 -2.3923199823395109e-05 0 1.2923906213353669e-06 -1.5799726007097426e-05 0 4.6137195451521776e-06 -1.9999870037709818e-05 0 -1.4101217887849508e-06 -2.3923199823395109e-05 0 -9.9584047762170579e-06 -1.5198548786855884e-05 0 -4.1898730023739206e-06 -1.8580089818731379e-05 0 -1.0820619632735437e-05 -2.1679913463337303e-05 0 -2.3737303849772489e-06 -1.2129343407266589e-05 0 -9.9584047762170579e-06 -1.5198548786855884e-05 0 -4.1898730023739206e-06 -1.8580089818731379e-05 0 -4.1898730023739206e-06 -1.8580089818731379e-05 0 -1.0820619632735437e-05 -2.1679913463337303e-05 0 -7.2499109780695986e-06 -2.7017908887412024e-05 0 -9.9584047762170579e-06 -1.5198548786855884e-05 0 -1.0820619632735437e-05 -2.1679913463337303e-05 0 -1.7915748007865212e-05 -2.1743727851239571e-05 0 -1.0820619632735437e-05 -2.1679913463337303e-05 0 -1.7915748007865212e-05 -2.1743727851239571e-05 0 -1.4824666855538811e-05 -2.6873713368708884e-05 0 -9.9584047762170579e-06 -1.5198548786855884e-05 0 -1.7915748007865212e-05 -2.1743727851239571e-05 0 -1.7940161027504859e-05 -1.5749431929023534e-05 0 -1.7915748007865212e-05 -2.1743727851239571e-05 0 -2.5151901837964777e-05 -2.1556802429133765e-05 0 -1.7940161027504859e-05 -1.5749431929023534e-05 0 -1.7915748007865212e-05 -2.1743727851239571e-05 0 -2.5151901837964777e-05 -2.1556802429133765e-05 0 -2.5813817248734488e-05 -3.0792872608919895e-05 0 -2.5151901837964777e-05 -2.1556802429133765e-05 0 -3.5012754005483568e-05 -2.798285813089329e-05 0 -2.5813817248734488e-05 -3.0792872608919895e-05 0 -2.5151901837964777e-05 -2.1556802429133765e-05 0 -3.5012754005483568e-05 -2.798285813089329e-05 0 -3.034803429331222e-05 -1.975453241194995e-05 0 -2.5151901837964777e-05 -2.1556802429133765e-05 0 -3.034803429331222e-05 -1.975453241194995e-05 0 -2.3514069804575503e-05 -1.6149827099312665e-05 0 -2.5151901837964777e-05 -2.1556802429133765e-05 0 -2.3514069804575503e-05 -1.6149827099312665e-05 0 -1.7940161027504859e-05 -1.5749431929023534e-05 0 -2.3514069804575503e-05 -1.6149827099312665e-05 0 -2.5601754807027524e-05 -1.3218160373936841e-05 0 -1.867462285787321e-05 -1.1322864426834072e-05 0 -2.3514069804575503e-05 -1.6149827099312665e-05 0 -1.867462285787321e-05 -1.1322864426834072e-05 0 -1.7940161027504859e-05 -1.5749431929023534e-05 0 -3.034803429331222e-05 -1.975453241194995e-05 0 -2.3514069804575503e-05 -1.6149827099312665e-05 0 -2.5601754807027524e-05 -1.3218160373936841e-05 0 -1.8723906020361763e-05 -8.4398083442320013e-06 0 -2.5601754807027524e-05 -1.3218160373936841e-05 0 -1.867462285787321e-05 -1.1322864426834072e-05 0 -1.3364689358597494e-05 -6.6090273400253723e-06 0 -1.867462285787321e-05 -1.1322864426834072e-05 0 -1.2336488634280763e-05 -1.0397054591730774e-05 0 -9.9584047762170579e-06 -1.5198548786855884e-05 0 -1.2336488634280763e-05 -1.0397054591730774e-05 0 -1.7940161027504859e-05 -1.5749431929023534e-05 0 -1.867462285787321e-05 -1.1322864426834072e-05 0 -1.2336488634280763e-05 -1.0397054591730774e-05 0 -1.7940161027504859e-05 -1.5749431929023534e-05 0 9.2034995799426862e-06 -6.4472825254907803e-06 0 9.4865929529068019e-06 -3.6552627535772884e-06 0 1.0406629756913337e-05 -5.1899056272192878e-06 0 9.2034995799426862e-06 -6.4472825254907803e-06 0 8.3447607961179364e-06 -4.5085228061601028e-06 0 9.4865929529068019e-06 -3.6552627535772884e-06 0 9.2034995799426862e-06 -6.4472825254907803e-06 0 8.3447607961179364e-06 -4.5085228061601028e-06 0 7.6203668629162806e-06 -6.6649143607717054e-06 0 9.4865929529068019e-06 -3.6552627535772884e-06 0 1.0809279630881966e-05 -2.1453057741182788e-06 0 1.0406629756913337e-05 -5.1899056272192878e-06 0 1.0809279630881966e-05 -2.1453057741182788e-06 0 1.2152370020378546e-05 -2.650268640422866e-06 0 1.2076055778456797e-05 4.3988124918353806e-08 0 1.0809279630881966e-05 -2.1453057741182788e-06 0 1.2152370020378546e-05 -2.650268640422866e-06 0 1.0406629756913337e-05 -5.1899056272192878e-06 0 1.2152370020378546e-05 -2.650268640422866e-06 0 1.0406629756913337e-05 -5.1899056272192878e-06 0 1.1481882562721602e-05 -5.4589872686724804e-06 0 1.0406629756913337e-05 -5.1899056272192878e-06 0 1.1481882562721602e-05 -5.4589872686724804e-06 0 1.0927419224167515e-05 -8.0573506849898185e-06 0 1.2152370020378546e-05 -2.650268640422866e-06 0 1.1481882562721602e-05 -5.4589872686724804e-06 0 1.2715289529162434e-05 -6.1103407014708833e-06 0 1.1481882562721602e-05 -5.4589872686724804e-06 0 1.2715289529162434e-05 -6.1103407014708833e-06 0 1.0927419224167515e-05 -8.0573506849898185e-06 0 1.0927419224167515e-05 -8.0573506849898185e-06 0 9.5882556915267813e-06 -8.8365683599285162e-06 0 9.8978400665175818e-06 -1.1456884802341199e-05 0 1.0406629756913337e-05 -5.1899056272192878e-06 0 1.0927419224167515e-05 -8.0573506849898185e-06 0 9.5882556915267813e-06 -8.8365683599285162e-06 0 9.2034995799426862e-06 -6.4472825254907803e-06 0 1.0406629756913337e-05 -5.1899056272192878e-06 0 9.5882556915267813e-06 -8.8365683599285162e-06 0 9.2034995799426862e-06 -6.4472825254907803e-06 0 9.5882556915267813e-06 -8.8365683599285162e-06 0 8.6113284658094741e-06 -9.1840484819163529e-06 0 9.5882556915267813e-06 -8.8365683599285162e-06 0 8.6990175633793932e-06 -1.2274115703179661e-05 0 9.8978400665175818e-06 -1.1456884802341199e-05 0 8.6990175633793932e-06 -1.2274115703179661e-05 0 8.7265607326822112e-06 -1.2453199586390425e-05 0 1.0288919775843177e-05 -1.6994329034383724e-05 0 8.6990175633793932e-06 -1.2274115703179661e-05 0 8.7265607326822112e-06 -1.2453199586390425e-05 0 8.6113284658094741e-06 -9.1840484819163529e-06 0 8.7265607326822112e-06 -1.2453199586390425e-05 0 8.6113284658094741e-06 -9.1840484819163529e-06 0 6.9066395464059729e-06 -8.9743583410101538e-06 0 9.5882556915267813e-06 -8.8365683599285162e-06 0 8.6990175633793932e-06 -1.2274115703179661e-05 0 8.6113284658094741e-06 -9.1840484819163529e-06 0 4.6137195451521776e-06 -1.9999870037709818e-05 0 6.6075310238640298e-06 -1.3560257395468006e-05 0 1.0288919775843177e-05 -1.6994329034383724e-05 0 1.2923906213353669e-06 -1.5799726007097426e-05 0 4.6137195451521776e-06 -1.9999870037709818e-05 0 6.6075310238640298e-06 -1.3560257395468006e-05 0 8.7265607326822112e-06 -1.2453199586390425e-05 0 6.6075310238640298e-06 -1.3560257395468006e-05 0 1.0288919775843177e-05 -1.6994329034383724e-05 0 8.7265607326822112e-06 -1.2453199586390425e-05 0 6.6075310238640298e-06 -1.3560257395468006e-05 0 6.9066395464059729e-06 -8.9743583410101538e-06 0 1.2923906213353669e-06 -1.5799726007097426e-05 0 6.6075310238640298e-06 -1.3560257395468006e-05 0 3.0496293904982672e-06 -1.0425032173091784e-05 0 6.6075310238640298e-06 -1.3560257395468006e-05 0 3.0496293904982672e-06 -1.0425032173091784e-05 0 6.9066395464059729e-06 -8.9743583410101538e-06 0 3.0496293904982672e-06 -1.0425032173091784e-05 0 6.9066395464059729e-06 -8.9743583410101538e-06 0 3.57959370634692e-06 -6.305231532505609e-06 0 6.9066395464059729e-06 -8.9743583410101538e-06 0 3.57959370634692e-06 -6.305231532505609e-06 0 5.8741914721460039e-06 -4.9341363162993905e-06 0 9.2034995799426862e-06 -6.4472825254907803e-06 0 8.6113284658094741e-06 -9.1840484819163529e-06 0 7.6203668629162806e-06 -6.6649143607717054e-06 0 8.6113284658094741e-06 -9.1840484819163529e-06 0 6.9066395464059729e-06 -8.9743583410101538e-06 0 7.6203668629162806e-06 -6.6649143607717054e-06 0 6.9066395464059729e-06 -8.9743583410101538e-06 0 7.6203668629162806e-06 -6.6649143607717054e-06 0 5.8741914721460039e-06 -4.9341363162993905e-06 0 7.6203668629162806e-06 -6.6649143607717054e-06 0 5.8741914721460039e-06 -4.9341363162993905e-06 0 6.9029094695641544e-06 -2.3582541097697418e-06 0 8.3447607961179364e-06 -4.5085228061601028e-06 0 7.6203668629162806e-06 -6.6649143607717054e-06 0 6.9029094695641544e-06 -2.3582541097697418e-06 0 5.8741914721460039e-06 -4.9341363162993905e-06 0 5.4288466011106331e-06 -2.5951627479246138e-06 0 6.9029094695641544e-06 -2.3582541097697418e-06 0 5.4288466011106331e-06 -2.5951627479246138e-06 0 6.9029094695641544e-06 -2.3582541097697418e-06 0 5.65601105460751e-06 -1.071742813326584e-06 0 6.8341944824987379e-07 -3.6889883410660564e-06 0 3.57959370634692e-06 -6.305231532505609e-06 0 3.8148077345940858e-06 -3.2137263912041675e-06 0 3.57959370634692e-06 -6.305231532505609e-06 0 5.8741914721460039e-06 -4.9341363162993905e-06 0 3.8148077345940858e-06 -3.2137263912041675e-06 0 5.8741914721460039e-06 -4.9341363162993905e-06 0 5.4288466011106331e-06 -2.5951627479246138e-06 0 3.8148077345940858e-06 -3.2137263912041675e-06 0 5.4288466011106331e-06 -2.5951627479246138e-06 0 3.8148077345940858e-06 -3.2137263912041675e-06 0 4.2469880221441838e-06 -1.1146734988215928e-06 0 6.8341944824987379e-07 -3.6889883410660564e-06 0 3.8148077345940858e-06 -3.2137263912041675e-06 0 2.2518414197683408e-06 -1.133707612703533e-06 0 3.8148077345940858e-06 -3.2137263912041675e-06 0 2.2518414197683408e-06 -1.133707612703533e-06 0 4.2469880221441838e-06 -1.1146734988215928e-06 0 2.2518414197683408e-06 -1.133707612703533e-06 0 4.2469880221441838e-06 -1.1146734988215928e-06 0 2.9017476665273242e-06 5.7625062512073314e-07 0 2.2518414197683408e-06 -1.133707612703533e-06 0 1.1560298440057771e-06 2.8721451698426463e-07 0 2.9017476665273242e-06 5.7625062512073314e-07 0 -2.0329486319468237e-07 -7.702708840178382e-07 0 2.2518414197683408e-06 -1.133707612703533e-06 0 1.1560298440057771e-06 2.8721451698426463e-07 0 6.9029094695641544e-06 -2.3582541097697418e-06 0 5.65601105460751e-06 -1.071742813326584e-06 0 6.406817419736828e-06 -1.8234553304432453e-07 0 5.4288466011106331e-06 -2.5951627479246138e-06 0 5.65601105460751e-06 -1.071742813326584e-06 0 4.2469880221441838e-06 -1.1146734988215928e-06 0 5.65601105460751e-06 -1.071742813326584e-06 0 4.2469880221441838e-06 -1.1146734988215928e-06 0 4.7634236084882409e-06 1.4653832643051262e-07 0 4.2469880221441838e-06 -1.1146734988215928e-06 0 4.7634236084882409e-06 1.4653832643051262e-07 0 2.9017476665273242e-06 5.7625062512073314e-07 0 5.65601105460751e-06 -1.071742813326584e-06 0 4.7634236084882409e-06 1.4653832643051262e-07 0 6.406817419736828e-06 -1.8234553304432453e-07 0 4.7634236084882409e-06 1.4653832643051262e-07 0 6.406817419736828e-06 -1.8234553304432453e-07 0 4.6891142747321122e-06 1.0479156272164843e-06 0 6.406817419736828e-06 -1.8234553304432453e-07 0 7.9931175888121068e-06 -8.5117331932736432e-08 0 6.2337019243230058e-06 7.226854873142315e-07 0 7.9931175888121068e-06 -8.5117331932736432e-08 0 7.8369104005973123e-06 6.5555649579920912e-07 0 6.2337019243230058e-06 7.226854873142315e-07 0 6.406817419736828e-06 -1.8234553304432453e-07 0 7.9931175888121068e-06 -8.5117331932736432e-08 0 7.827942946377779e-06 -1.235795694398462e-06 0 6.9029094695641544e-06 -2.3582541097697418e-06 0 6.406817419736828e-06 -1.8234553304432453e-07 0 7.827942946377779e-06 -1.235795694398462e-06 0 6.9029094695641544e-06 -2.3582541097697418e-06 0 7.827942946377779e-06 -1.235795694398462e-06 0 8.4423123817076608e-06 -2.5994298707885027e-06 0 7.827942946377779e-06 -1.235795694398462e-06 0 8.4423123817076608e-06 -2.5994298707885027e-06 0 9.373434865137994e-06 -1.2847824469017979e-06 0 7.9931175888121068e-06 -8.5117331932736432e-08 0 7.827942946377779e-06 -1.235795694398462e-06 0 9.373434865137994e-06 -1.2847824469017979e-06 0 9.4865929529068019e-06 -3.6552627535772884e-06 0 8.4423123817076608e-06 -2.5994298707885027e-06 0 9.373434865137994e-06 -1.2847824469017979e-06 0 8.3447607961179364e-06 -4.5085228061601028e-06 0 9.4865929529068019e-06 -3.6552627535772884e-06 0 8.4423123817076608e-06 -2.5994298707885027e-06 0 8.3447607961179364e-06 -4.5085228061601028e-06 0 6.9029094695641544e-06 -2.3582541097697418e-06 0 8.4423123817076608e-06 -2.5994298707885027e-06 0 1.0809279630881966e-05 -2.1453057741182788e-06 0 1.0631266660534151e-05 -3.4661533402159614e-07 0 1.2076055778456797e-05 4.3988124918353806e-08 0 1.0809279630881966e-05 -2.1453057741182788e-06 0 1.0631266660534151e-05 -3.4661533402159614e-07 0 9.373434865137994e-06 -1.2847824469017979e-06 0 9.4865929529068019e-06 -3.6552627535772884e-06 0 1.0809279630881966e-05 -2.1453057741182788e-06 0 9.373434865137994e-06 -1.2847824469017979e-06 0 7.9931175888121068e-06 -8.5117331932736432e-08 0 9.373434865137994e-06 -1.2847824469017979e-06 0 9.5090787765946445e-06 1.5387890132619004e-07 0 1.0631266660534151e-05 -3.4661533402159614e-07 0 9.5090787765946445e-06 1.5387890132619004e-07 0 1.130291808265218e-05 1.1053282961105856e-06 0 1.0631266660534151e-05 -3.4661533402159614e-07 0 9.373434865137994e-06 -1.2847824469017979e-06 0 9.5090787765946445e-06 1.5387890132619004e-07 0 9.5090787765946445e-06 1.5387890132619004e-07 0 7.8369104005973123e-06 6.5555649579920912e-07 0 9.4745759245592325e-06 8.7903595799184028e-07 0 7.9931175888121068e-06 -8.5117331932736432e-08 0 9.5090787765946445e-06 1.5387890132619004e-07 0 7.8369104005973123e-06 6.5555649579920912e-07 0 7.8369104005973123e-06 6.5555649579920912e-07 0 7.8618341709922346e-06 9.1707783090771525e-07 0 9.4745759245592325e-06 8.7903595799184028e-07 0 7.8618341709922346e-06 9.1707783090771525e-07 0 6.1680913849417723e-06 9.8420951588448677e-07 0 6.5136955334481912e-06 9.4825923333087353e-07 0 6.1680913849417723e-06 9.8420951588448677e-07 0 6.5136955334481912e-06 9.4825923333087353e-07 0 5.207219776424048e-06 1.2227391433423023e-06 0 7.8369104005973123e-06 6.5555649579920912e-07 0 6.5136955334481912e-06 9.4825923333087353e-07 0 6.2337019243230058e-06 7.226854873142315e-07 0 7.8369104005973123e-06 6.5555649579920912e-07 0 7.8618341709922346e-06 9.1707783090771525e-07 0 6.5136955334481912e-06 9.4825923333087353e-07 0 6.406817419736828e-06 -1.8234553304432453e-07 0 6.2337019243230058e-06 7.226854873142315e-07 0 4.6891142747321122e-06 1.0479156272164843e-06 0 5.207219776424048e-06 1.2227391433423023e-06 0 3.7599730488312295e-06 1.5355264573452414e-06 0 4.6891142747321122e-06 1.0479156272164843e-06 0 6.2337019243230058e-06 7.226854873142315e-07 0 5.207219776424048e-06 1.2227391433423023e-06 0 4.6891142747321122e-06 1.0479156272164843e-06 0 6.5136955334481912e-06 9.4825923333087353e-07 0 6.2337019243230058e-06 7.226854873142315e-07 0 5.207219776424048e-06 1.2227391433423023e-06 0 5.207219776424048e-06 1.2227391433423023e-06 0 3.6270692529456753e-06 1.3564869476797452e-06 0 4.7010140926370563e-06 1.1227903945436132e-06 0 5.207219776424048e-06 1.2227391433423023e-06 0 3.7599730488312295e-06 1.5355264573452414e-06 0 3.6270692529456753e-06 1.3564869476797452e-06 0 3.7599730488312295e-06 1.5355264573452414e-06 0 3.6270692529456753e-06 1.3564869476797452e-06 0 2.4785677883275653e-06 1.5257533087853119e-06 0 3.6270692529456753e-06 1.3564869476797452e-06 0 4.7010140926370563e-06 1.1227903945436132e-06 0 3.2780522926519098e-06 9.8390284566784806e-07 0 4.7010140926370563e-06 1.1227903945436132e-06 0 3.2780522926519098e-06 9.8390284566784806e-07 0 3.8891469100873561e-06 6.5152975081266178e-07 0 4.7010140926370563e-06 1.1227903945436132e-06 0 3.8891469100873561e-06 6.5152975081266178e-07 0 5.4699704937694292e-06 7.9075917997591489e-07 0 6.1680913849417723e-06 9.8420951588448677e-07 0 4.7010140926370563e-06 1.1227903945436132e-06 0 5.4699704937694292e-06 7.9075917997591489e-07 0 6.1680913849417723e-06 9.8420951588448677e-07 0 5.207219776424048e-06 1.2227391433423023e-06 0 4.7010140926370563e-06 1.1227903945436132e-06 0 1.1560298440057771e-06 2.8721451698426463e-07 0 1.2641636611896597e-06 1.3586396020250227e-06 0 2.9017476665273242e-06 5.7625062512073314e-07 0 1.2641636611896597e-06 1.3586396020250227e-06 0 2.9017476665273242e-06 5.7625062512073314e-07 0 2.6640473207829159e-06 1.5129897244610387e-06 0 1.2641636611896597e-06 1.3586396020250227e-06 0 2.6640473207829159e-06 1.5129897244610387e-06 0 1.3038050880710662e-06 1.8993596150174738e-06 0 2.6640473207829159e-06 1.5129897244610387e-06 0 3.7875527888518308e-06 9.6128518996742954e-07 0 3.4455526124036147e-06 1.5222214792230609e-06 0 2.9017476665273242e-06 5.7625062512073314e-07 0 2.6640473207829159e-06 1.5129897244610387e-06 0 3.7875527888518308e-06 9.6128518996742954e-07 0 4.7634236084882409e-06 1.4653832643051262e-07 0 2.9017476665273242e-06 5.7625062512073314e-07 0 3.7875527888518308e-06 9.6128518996742954e-07 0 4.7634236084882409e-06 1.4653832643051262e-07 0 3.7875527888518308e-06 9.6128518996742954e-07 0 4.6891142747321122e-06 1.0479156272164843e-06 0 3.7875527888518308e-06 9.6128518996742954e-07 0 4.6891142747321122e-06 1.0479156272164843e-06 0 3.4455526124036147e-06 1.5222214792230609e-06 0 3.7599730488312295e-06 1.5355264573452414e-06 0 4.6891142747321122e-06 1.0479156272164843e-06 0 3.4455526124036147e-06 1.5222214792230609e-06 0 3.7599730488312295e-06 1.5355264573452414e-06 0 3.4455526124036147e-06 1.5222214792230609e-06 0 2.2511696637533451e-06 1.8753830599915191e-06 0 3.7599730488312295e-06 1.5355264573452414e-06 0 2.2511696637533451e-06 1.8753830599915191e-06 0 2.4785677883275653e-06 1.5257533087853119e-06 0 2.6640473207829159e-06 1.5129897244610387e-06 0 3.4455526124036147e-06 1.5222214792230609e-06 0 2.2511696637533451e-06 1.8753830599915191e-06 0 2.6640473207829159e-06 1.5129897244610387e-06 0 2.2511696637533451e-06 1.8753830599915191e-06 0 1.3038050880710662e-06 1.8993596150174738e-06 0 2.2511696637533451e-06 1.8753830599915191e-06 0 1.3038050880710662e-06 1.8993596150174738e-06 0 6.9882873141374428e-07 2.042924118949374e-06 0 8.9309416255499491e-08 2.0597656141825557e-06 0 1.3038050880710662e-06 1.8993596150174738e-06 0 6.9882873141374428e-07 2.042924118949374e-06 0 -1.3662760360433618e-07 1.8424444553119363e-06 0 1.2641636611896597e-06 1.3586396020250227e-06 0 1.3038050880710662e-06 1.8993596150174738e-06 0 -1.3662760360433618e-07 1.8424444553119363e-06 0 8.9309416255499491e-08 2.0597656141825557e-06 0 1.3038050880710662e-06 1.8993596150174738e-06 0 8.247327334083834e-08 1.9623347508919205e-06 0 1.0162724345089288e-06 1.8142923809833161e-06 0 2.7032003146715837e-07 1.2852683902299738e-06 0 8.247327334083834e-08 1.9623347508919205e-06 0 8.9309416255499491e-08 2.0597656141825557e-06 0 6.9882873141374428e-07 2.042924118949374e-06 0 8.247327334083834e-08 1.9623347508919205e-06 0 6.9882873141374428e-07 2.042924118949374e-06 0 1.0162724345089288e-06 1.8142923809833161e-06 0 2.2511696637533451e-06 1.8753830599915191e-06 0 6.9882873141374428e-07 2.042924118949374e-06 0 1.0162724345089288e-06 1.8142923809833161e-06 0 1.0162724345089288e-06 1.8142923809833161e-06 0 6.1160071052963396e-07 1.0865718231308288e-06 0 2.7032003146715837e-07 1.2852683902299738e-06 0 1.0162724345089288e-06 1.8142923809833161e-06 0 1.4889711279484065e-06 1.5586295965728429e-06 0 6.1160071052963396e-07 1.0865718231308288e-06 0 2.2511696637533451e-06 1.8753830599915191e-06 0 1.0162724345089288e-06 1.8142923809833161e-06 0 1.4889711279484065e-06 1.5586295965728429e-06 0 2.2511696637533451e-06 1.8753830599915191e-06 0 1.4889711279484065e-06 1.5586295965728429e-06 0 2.4785677883275653e-06 1.5257533087853119e-06 0 1.4889711279484065e-06 1.5586295965728429e-06 0 2.4785677883275653e-06 1.5257533087853119e-06 0 1.0054898295660008e-06 9.8551317058044632e-07 0 1.4889711279484065e-06 1.5586295965728429e-06 0 6.1160071052963396e-07 1.0865718231308288e-06 0 1.0054898295660008e-06 9.8551317058044632e-07 0 7.0444640046929955e-10 5.1335212516893266e-10 0 6.1160071052963396e-07 1.0865718231308288e-06 0 1.0054898295660008e-06 9.8551317058044632e-07 0 7.0444640046929955e-10 5.1335212516893266e-10 0 6.1160071052963396e-07 1.0865718231308288e-06 0 4.4323027678276831e-10 5.1578900105902489e-10 0 6.1160071052963396e-07 1.0865718231308288e-06 0 4.4323027678276831e-10 5.1578900105902489e-10 0 2.7032003146715837e-07 1.2852683902299738e-06 0 4.4323027678276831e-10 5.1578900105902489e-10 0 3.4039023557420773e-11 6.1296242252573804e-10 0 2.7032003146715837e-07 1.2852683902299738e-06 0 -1.2366137641458541e-07 1.2038629668166714e-06 0 3.4039023557420773e-11 6.1296242252573804e-10 0 2.7032003146715837e-07 1.2852683902299738e-06 0 2.0232839172994924e-06 5.4602774056943143e-07 0 3.2780522926519098e-06 9.8390284566784806e-07 0 2.0162237660626553e-06 1.0016495086372829e-06 0 2.0232839172994924e-06 5.4602774056943143e-07 0 3.2780522926519098e-06 9.8390284566784806e-07 0 3.8891469100873561e-06 6.5152975081266178e-07 0 3.6270692529456753e-06 1.3564869476797452e-06 0 3.2780522926519098e-06 9.8390284566784806e-07 0 2.0162237660626553e-06 1.0016495086372829e-06 0 3.6270692529456753e-06 1.3564869476797452e-06 0 2.4785677883275653e-06 1.5257533087853119e-06 0 2.0162237660626553e-06 1.0016495086372829e-06 0 2.4785677883275653e-06 1.5257533087853119e-06 0 2.0162237660626553e-06 1.0016495086372829e-06 0 1.0054898295660008e-06 9.8551317058044632e-07 0 2.0162237660626553e-06 1.0016495086372829e-06 0 8.3905078015494817e-07 5.8843629227609387e-07 0 1.0054898295660008e-06 9.8551317058044632e-07 0 7.0444640046929955e-10 5.1335212516893266e-10 0 1.0054898295660008e-06 9.8551317058044632e-07 0 1.0605214257615308e-09 3.1160377680792922e-10 0 8.3905078015494817e-07 5.8843629227609387e-07 0 1.0054898295660008e-06 9.8551317058044632e-07 0 1.0605214257615308e-09 3.1160377680792922e-10 0 8.3905078015494817e-07 5.8843629227609387e-07 0 1.0605214257615308e-09 3.1160377680792922e-10 0 1.2209062767788582e-09 2.6067541533442325e-10 0 8.3905078015494817e-07 5.8843629227609387e-07 0 1.2209062767788582e-09 2.6067541533442325e-10 0 8.7693497432312914e-07 4.2063229075901857e-07 0 2.0232839172994924e-06 5.4602774056943143e-07 0 8.7693497432312914e-07 4.2063229075901857e-07 0 1.3064420950282747e-09 2.0850068356825092e-10 0 2.0232839172994924e-06 5.4602774056943143e-07 0 2.0162237660626553e-06 1.0016495086372829e-06 0 8.7693497432312914e-07 4.2063229075901857e-07 0 2.0162237660626553e-06 1.0016495086372829e-06 0 8.3905078015494817e-07 5.8843629227609387e-07 0 8.7693497432312914e-07 4.2063229075901857e-07 0 1.2209062767788582e-09 2.6067541533442325e-10 0 8.7693497432312914e-07 4.2063229075901857e-07 0 1.3064420950282747e-09 2.0850068356825092e-10 0 2.0232839172994924e-06 5.4602774056943143e-07 0 1.3064420950282747e-09 2.0850068356825092e-10 0 1.3102966038209274e-06 1.1935786118226164e-07 0 1.3064420950282747e-09 2.0850068356825092e-10 0 1.3844705491162742e-09 -1.0316225202756834e-10 0 1.3102966038209274e-06 1.1935786118226164e-07 0 1.3844705491162742e-09 -1.0316225202756834e-10 0 1.3102966038209274e-06 1.1935786118226164e-07 0 9.9208157470137321e-07 -1.3166165520144037e-07 0 1.3102966038209274e-06 1.1935786118226164e-07 0 2.4323455471944175e-06 -1.2611182160865675e-07 0 9.9208157470137321e-07 -1.3166165520144037e-07 0 2.0232839172994924e-06 5.4602774056943143e-07 0 1.3102966038209274e-06 1.1935786118226164e-07 0 2.6858782963497247e-06 2.3433001041486654e-07 0 2.0232839172994924e-06 5.4602774056943143e-07 0 2.6858782963497247e-06 2.3433001041486654e-07 0 3.8891469100873561e-06 6.5152975081266178e-07 0 1.3102966038209274e-06 1.1935786118226164e-07 0 2.6858782963497247e-06 2.3433001041486654e-07 0 2.4323455471944175e-06 -1.2611182160865675e-07 0 2.6858782963497247e-06 2.3433001041486654e-07 0 3.8169714501245406e-06 -1.4533895042103769e-08 0 2.4323455471944175e-06 -1.2611182160865675e-07 0 2.6858782963497247e-06 2.3433001041486654e-07 0 3.8891469100873561e-06 6.5152975081266178e-07 0 3.8169714501245406e-06 -1.4533895042103769e-08 0 3.2174558588431767e-06 -5.417628302780014e-07 0 3.8169714501245406e-06 -1.4533895042103769e-08 0 2.4323455471944175e-06 -1.2611182160865675e-07 0 3.2174558588431767e-06 -5.417628302780014e-07 0 1.4060119863458495e-06 -4.8689293029106056e-07 0 2.3759915854146972e-06 -9.7938792535926948e-07 0 3.2174558588431767e-06 -5.417628302780014e-07 0 2.4323455471944175e-06 -1.2611182160865675e-07 0 1.4060119863458495e-06 -4.8689293029106056e-07 0 2.4323455471944175e-06 -1.2611182160865675e-07 0 1.4060119863458495e-06 -4.8689293029106056e-07 0 9.9208157470137321e-07 -1.3166165520144037e-07 0 1.3844705491162742e-09 -1.0316225202756834e-10 0 9.9208157470137321e-07 -1.3166165520144037e-07 0 1.3875414733065353e-09 -1.6684929823028424e-11 0 1.4060119863458495e-06 -4.8689293029106056e-07 0 1.3875414733065353e-09 -1.6684929823028424e-11 0 1.0947086119538774e-09 -3.9363480703952063e-10 0 1.4060119863458495e-06 -4.8689293029106056e-07 0 9.9208157470137321e-07 -1.3166165520144037e-07 0 1.3875414733065353e-09 -1.6684929823028424e-11 0 1.0947086119538774e-09 -3.9363480703952063e-10 0 1.0856850437999389e-06 -8.6266186035036178e-07 0 8.2030197061110536e-10 -4.9024626969912088e-10 0 1.4060119863458495e-06 -4.8689293029106056e-07 0 1.0856850437999389e-06 -8.6266186035036178e-07 0 2.3759915854146972e-06 -9.7938792535926948e-07 0 1.4060119863458495e-06 -4.8689293029106056e-07 0 1.0947086119538774e-09 -3.9363480703952063e-10 0 1.0856850437999389e-06 -8.6266186035036178e-07 0 8.2030197061110536e-10 -4.9024626969912088e-10 0 7.1582817515301504e-07 -1.3135550967630756e-06 0 3.772462451051668e-10 -7.1470463269872469e-10 0 1.0856850437999389e-06 -8.6266186035036178e-07 0 8.2030197061110536e-10 -4.9024626969912088e-10 0 7.1582817515301504e-07 -1.3135550967630756e-06 0 7.1582817515301504e-07 -1.3135550967630756e-06 0 3.772462451051668e-10 -7.1470463269872469e-10 0 1.8266230301563891e-07 -1.4102350300793844e-06 0 7.1582817515301504e-07 -1.3135550967630756e-06 0 2.2906418788411696e-06 -1.5994731940322989e-06 0 8.9681677798185001e-07 -2.1020633064081414e-06 0 2.2906418788411696e-06 -1.5994731940322989e-06 0 2.0396708860517577e-06 -1.9561336642979103e-06 0 8.9681677798185001e-07 -2.1020633064081414e-06 0 1.0856850437999389e-06 -8.6266186035036178e-07 0 7.1582817515301504e-07 -1.3135550967630756e-06 0 2.2906418788411696e-06 -1.5994731940322989e-06 0 2.0396708860517577e-06 -1.9561336642979103e-06 0 8.9681677798185001e-07 -2.1020633064081414e-06 0 1.6551519601650715e-06 -2.0998449637032088e-06 0 1.0856850437999389e-06 -8.6266186035036178e-07 0 2.2906418788411696e-06 -1.5994731940322989e-06 0 2.3759915854146972e-06 -9.7938792535926948e-07 0 2.2906418788411696e-06 -1.5994731940322989e-06 0 2.3759915854146972e-06 -9.7938792535926948e-07 0 3.6850175548201356e-06 -9.0350567219650121e-07 0 3.2174558588431767e-06 -5.417628302780014e-07 0 2.3759915854146972e-06 -9.7938792535926948e-07 0 3.6850175548201356e-06 -9.0350567219650121e-07 0 2.2906418788411696e-06 -1.5994731940322989e-06 0 3.6850175548201356e-06 -9.0350567219650121e-07 0 4.8461174140693491e-06 -9.716028748714692e-07 0 3.6850175548201356e-06 -9.0350567219650121e-07 0 4.8461174140693491e-06 -9.716028748714692e-07 0 5.3205927888312036e-06 -2.6920101572566597e-07 0 4.8461174140693491e-06 -9.716028748714692e-07 0 6.8731306876461493e-06 4.0677858467136715e-08 0 5.3205927888312036e-06 -2.6920101572566597e-07 0 2.2906418788411696e-06 -1.5994731940322989e-06 0 4.8461174140693491e-06 -9.716028748714692e-07 0 3.3621401101986127e-06 -1.6027937453507292e-06 0 2.0396708860517577e-06 -1.9561336642979103e-06 0 3.3621401101986127e-06 -1.6027937453507292e-06 0 1.6551519601650715e-06 -2.0998449637032088e-06 0 2.2906418788411696e-06 -1.5994731940322989e-06 0 2.0396708860517577e-06 -1.9561336642979103e-06 0 3.3621401101986127e-06 -1.6027937453507292e-06 0 4.8461174140693491e-06 -9.716028748714692e-07 0 3.3621401101986127e-06 -1.6027937453507292e-06 0 4.5492593169425707e-06 -1.0709653768778823e-06 0 3.3621401101986127e-06 -1.6027937453507292e-06 0 1.6551519601650715e-06 -2.0998449637032088e-06 0 2.278463521207047e-06 -1.7770699717046284e-06 0 3.3621401101986127e-06 -1.6027937453507292e-06 0 4.5492593169425707e-06 -1.0709653768778823e-06 0 2.278463521207047e-06 -1.7770699717046284e-06 0 4.5492593169425707e-06 -1.0709653768778823e-06 0 5.0782208061426253e-06 -4.804506347875983e-07 0 2.278463521207047e-06 -1.7770699717046284e-06 0 4.5492593169425707e-06 -1.0709653768778823e-06 0 5.0782208061426253e-06 -4.804506347875983e-07 0 6.9852211091170124e-06 -1.7277822131172691e-08 0 5.0782208061426253e-06 -4.804506347875983e-07 0 6.9852211091170124e-06 -1.7277822131172691e-08 0 7.6348465046747857e-06 1.0676704898145748e-06 0 5.0782208061426253e-06 -4.804506347875983e-07 0 1.9237690460989651e-06 -8.4421878658255322e-07 0 5.0753908567323138e-06 5.7875443561181726e-07 0 5.0782208061426253e-06 -4.804506347875983e-07 0 5.0753908567323138e-06 5.7875443561181726e-07 0 7.6348465046747857e-06 1.0676704898145748e-06 0 4.8461174140693491e-06 -9.716028748714692e-07 0 6.9852211091170124e-06 -1.7277822131172691e-08 0 6.8731306876461493e-06 4.0677858467136715e-08 0 4.8461174140693491e-06 -9.716028748714692e-07 0 4.5492593169425707e-06 -1.0709653768778823e-06 0 6.9852211091170124e-06 -1.7277822131172691e-08 0 6.9852211091170124e-06 -1.7277822131172691e-08 0 8.7928010564494072e-06 9.1544554428367461e-07 0 6.8731306876461493e-06 4.0677858467136715e-08 0 6.9852211091170124e-06 -1.7277822131172691e-08 0 8.7928010564494072e-06 9.1544554428367461e-07 0 9.9951451326628643e-06 1.7685254279550736e-06 0 8.7928010564494072e-06 9.1544554428367461e-07 0 6.8731306876461493e-06 4.0677858467136715e-08 0 8.1887704145933304e-06 7.4269548408319021e-07 0 8.7928010564494072e-06 9.1544554428367461e-07 0 8.1887704145933304e-06 7.4269548408319021e-07 0 9.879643991337963e-06 1.3677335909143453e-06 0 6.8731306876461493e-06 4.0677858467136715e-08 0 8.1887704145933304e-06 7.4269548408319021e-07 0 6.4704905839211386e-06 2.9133932781215346e-07 0 8.1887704145933304e-06 7.4269548408319021e-07 0 6.9629446502513831e-06 7.6402507820775816e-07 0 6.4704905839211386e-06 2.9133932781215346e-07 0 8.1887704145933304e-06 7.4269548408319021e-07 0 8.9998832312893006e-06 1.065240740818914e-06 0 9.879643991337963e-06 1.3677335909143453e-06 0 8.1887704145933304e-06 7.4269548408319021e-07 0 6.9629446502513831e-06 7.6402507820775816e-07 0 8.9998832312893006e-06 1.065240740818914e-06 0 7.8618341709922346e-06 9.1707783090771525e-07 0 6.9629446502513831e-06 7.6402507820775816e-07 0 8.9998832312893006e-06 1.065240740818914e-06 0 6.1680913849417723e-06 9.8420951588448677e-07 0 6.9629446502513831e-06 7.6402507820775816e-07 0 5.4699704937694292e-06 7.9075917997591489e-07 0 7.8618341709922346e-06 9.1707783090771525e-07 0 6.1680913849417723e-06 9.8420951588448677e-07 0 6.9629446502513831e-06 7.6402507820775816e-07 0 6.9629446502513831e-06 7.6402507820775816e-07 0 5.0829633243636641e-06 3.1985438341860068e-07 0 6.4704905839211386e-06 2.9133932781215346e-07 0 6.9629446502513831e-06 7.6402507820775816e-07 0 5.4699704937694292e-06 7.9075917997591489e-07 0 5.0829633243636641e-06 3.1985438341860068e-07 0 3.8891469100873561e-06 6.5152975081266178e-07 0 5.4699704937694292e-06 7.9075917997591489e-07 0 5.0829633243636641e-06 3.1985438341860068e-07 0 3.8891469100873561e-06 6.5152975081266178e-07 0 3.8169714501245406e-06 -1.4533895042103769e-08 0 5.0829633243636641e-06 3.1985438341860068e-07 0 3.8169714501245406e-06 -1.4533895042103769e-08 0 5.0829633243636641e-06 3.1985438341860068e-07 0 5.3205927888312036e-06 -2.6920101572566597e-07 0 3.2174558588431767e-06 -5.417628302780014e-07 0 3.8169714501245406e-06 -1.4533895042103769e-08 0 5.3205927888312036e-06 -2.6920101572566597e-07 0 3.2174558588431767e-06 -5.417628302780014e-07 0 3.6850175548201356e-06 -9.0350567219650121e-07 0 5.3205927888312036e-06 -2.6920101572566597e-07 0 6.8731306876461493e-06 4.0677858467136715e-08 0 5.3205927888312036e-06 -2.6920101572566597e-07 0 6.4704905839211386e-06 2.9133932781215346e-07 0 5.0829633243636641e-06 3.1985438341860068e-07 0 5.3205927888312036e-06 -2.6920101572566597e-07 0 6.4704905839211386e-06 2.9133932781215346e-07 0 -5.253861120593761e-06 -2.6651104856722346e-07 0 -4.7965540492916026e-06 -1.2210208902635611e-06 0 -8.8033216517925814e-06 -7.7102023821947579e-08 0 -4.7965540492916026e-06 -1.2210208902635611e-06 0 -2.1986587176039593e-06 -8.6732529640685915e-07 0 -2.8167297844417553e-06 -1.7813757874533836e-06 0 -5.253861120593761e-06 -2.6651104856722346e-07 0 -2.3708890983418651e-06 7.9036818970662418e-08 0 -2.1986587176039593e-06 -8.6732529640685915e-07 0 -5.253861120593761e-06 -2.6651104856722346e-07 0 -4.7965540492916026e-06 -1.2210208902635611e-06 0 -2.1986587176039593e-06 -8.6732529640685915e-07 0 -2.3708890983418651e-06 7.9036818970662418e-08 0 -1.0238321052398288e-06 -2.2704791660356005e-07 0 -2.1986587176039593e-06 -8.6732529640685915e-07 0 -2.3708890983418651e-06 7.9036818970662418e-08 0 -2.0423947897906291e-09 8.3570759921300968e-10 0 -1.0238321052398288e-06 -2.2704791660356005e-07 0 -2.0423947897906291e-09 8.3570759921300968e-10 0 -1.0238321052398288e-06 -2.2704791660356005e-07 0 -1.7887521324107501e-09 -6.7237610984809329e-10 0 -1.0238321052398288e-06 -2.2704791660356005e-07 0 -1.7887521324107501e-09 -6.7237610984809329e-10 0 -2.1986587176039593e-06 -8.6732529640685915e-07 0 -1.7887521324107501e-09 -6.7237610984809329e-10 0 -2.1986587176039593e-06 -8.6732529640685915e-07 0 -1.2648868339416407e-06 -1.2576144505805997e-06 0 -2.1986587176039593e-06 -8.6732529640685915e-07 0 -1.2648868339416407e-06 -1.2576144505805997e-06 0 -2.8167297844417553e-06 -1.7813757874533836e-06 0 -1.7887521324107501e-09 -6.7237610984809329e-10 0 -1.5347540519241145e-09 -2.8003432676400577e-10 0 -1.2648868339416407e-06 -1.2576144505805997e-06 0 -1.5347540519241145e-09 -2.8003432676400577e-10 0 -1.2648868339416407e-06 -1.2576144505805997e-06 0 -6.4272146219312228e-10 -1.0494897756823851e-09 0 -1.2648868339416407e-06 -1.2576144505805997e-06 0 -2.8167297844417553e-06 -1.7813757874533836e-06 0 -1.1984088216948086e-06 -1.9328116586694136e-06 0 -2.8167297844417553e-06 -1.7813757874533836e-06 0 -2.4953249620793765e-06 -2.3368294628243314e-06 0 -1.1984088216948086e-06 -1.9328116586694136e-06 0 -4.7965540492916026e-06 -1.2210208902635611e-06 0 -2.8167297844417553e-06 -1.7813757874533836e-06 0 -4.3047820584081604e-06 -2.073770170742271e-06 0 -4.7965540492916026e-06 -1.2210208902635611e-06 0 -4.3047820584081604e-06 -2.073770170742271e-06 0 -6.6656078252709981e-06 -1.4242153088503805e-06 0 -4.3047820584081604e-06 -2.073770170742271e-06 0 -2.4953249620793765e-06 -2.3368294628243314e-06 0 -2.6935399146043646e-06 -2.4478134878078043e-06 0 -2.8167297844417553e-06 -1.7813757874533836e-06 0 -4.3047820584081604e-06 -2.073770170742271e-06 0 -2.4953249620793765e-06 -2.3368294628243314e-06 0 -2.4953249620793765e-06 -2.3368294628243314e-06 0 -1.3508849789152593e-06 -2.4958448376040419e-06 0 -2.6935399146043646e-06 -2.4478134878078043e-06 0 -1.3508849789152593e-06 -2.4958448376040419e-06 0 -1.1984088216948086e-06 -1.9328116586694136e-06 0 -2.1250514490318692e-07 -2.2144217703888109e-06 0 -2.4953249620793765e-06 -2.3368294628243314e-06 0 -1.3508849789152593e-06 -2.4958448376040419e-06 0 -1.1984088216948086e-06 -1.9328116586694136e-06 0 -1.1984088216948086e-06 -1.9328116586694136e-06 0 -6.4272146219312228e-10 -1.0494897756823851e-09 0 -2.6966801520355261e-07 -1.3025458490993957e-06 0 -1.2648868339416407e-06 -1.2576144505805997e-06 0 -1.1984088216948086e-06 -1.9328116586694136e-06 0 -6.4272146219312228e-10 -1.0494897756823851e-09 0 -6.4272146219312228e-10 -1.0494897756823851e-09 0 -2.6966801520355261e-07 -1.3025458490993957e-06 0 -1.8494476758382871e-10 -6.2693953635802264e-10 0 -1.1984088216948086e-06 -1.9328116586694136e-06 0 -2.6966801520355261e-07 -1.3025458490993957e-06 0 -2.1250514490318692e-07 -2.2144217703888109e-06 0 -2.6966801520355261e-07 -1.3025458490993957e-06 0 1.8266230301563891e-07 -1.4102350300793844e-06 0 -2.1250514490318692e-07 -2.2144217703888109e-06 0 -2.6966801520355261e-07 -1.3025458490993957e-06 0 -1.8494476758382871e-10 -6.2693953635802264e-10 0 1.8266230301563891e-07 -1.4102350300793844e-06 0 -1.8494476758382871e-10 -6.2693953635802264e-10 0 3.772462451051668e-10 -7.1470463269872469e-10 0 1.8266230301563891e-07 -1.4102350300793844e-06 0 7.1582817515301504e-07 -1.3135550967630756e-06 0 1.8266230301563891e-07 -1.4102350300793844e-06 0 8.9681677798185001e-07 -2.1020633064081414e-06 0 1.8266230301563891e-07 -1.4102350300793844e-06 0 8.9681677798185001e-07 -2.1020633064081414e-06 0 -2.1250514490318692e-07 -2.2144217703888109e-06 0 -1.3508849789152593e-06 -2.4958448376040419e-06 0 -2.1250514490318692e-07 -2.2144217703888109e-06 0 2.7384189296813202e-08 -2.4986012721967213e-06 0 8.9681677798185001e-07 -2.1020633064081414e-06 0 -2.1250514490318692e-07 -2.2144217703888109e-06 0 2.7384189296813202e-08 -2.4986012721967213e-06 0 8.9681677798185001e-07 -2.1020633064081414e-06 0 1.6551519601650715e-06 -2.0998449637032088e-06 0 2.7384189296813202e-08 -2.4986012721967213e-06 0 1.6551519601650715e-06 -2.0998449637032088e-06 0 2.7384189296813202e-08 -2.4986012721967213e-06 0 2.278463521207047e-06 -1.7770699717046284e-06 0 2.7384189296813202e-08 -2.4986012721967213e-06 0 2.278463521207047e-06 -1.7770699717046284e-06 0 -1.0138362684397755e-06 -2.1477114649594252e-06 0 5.0782208061426253e-06 -4.804506347875983e-07 0 2.278463521207047e-06 -1.7770699717046284e-06 0 1.9237690460989651e-06 -8.4421878658255322e-07 0 1.9237690460989651e-06 -8.4421878658255322e-07 0 -1.1743312749678451e-06 -1.0363595173850429e-06 0 -5.6875075432565912e-07 6.9366281572431442e-07 0 1.9237690460989651e-06 -8.4421878658255322e-07 0 -1.1743312749678451e-06 -1.0363595173850429e-06 0 -1.0138362684397755e-06 -2.1477114649594252e-06 0 2.278463521207047e-06 -1.7770699717046284e-06 0 1.9237690460989651e-06 -8.4421878658255322e-07 0 -1.0138362684397755e-06 -2.1477114649594252e-06 0 -1.1743312749678451e-06 -1.0363595173850429e-06 0 -4.5217880186884989e-06 -1.5826738645066243e-06 0 -1.0138362684397755e-06 -2.1477114649594252e-06 0 -1.1743312749678451e-06 -1.0363595173850429e-06 0 -4.5163642039842213e-06 -4.677257912571387e-08 0 -5.6875075432565912e-07 6.9366281572431442e-07 0 -1.1743312749678451e-06 -1.0363595173850429e-06 0 -4.5163642039842213e-06 -4.677257912571387e-08 0 -4.5217880186884989e-06 -1.5826738645066243e-06 0 -4.5217880186884989e-06 -1.5826738645066243e-06 0 -1.0138362684397755e-06 -2.1477114649594252e-06 0 -2.6935399146043646e-06 -2.4478134878078043e-06 0 -4.5217880186884989e-06 -1.5826738645066243e-06 0 -2.6935399146043646e-06 -2.4478134878078043e-06 0 -5.3174297274280846e-06 -1.8783930409463127e-06 0 2.7384189296813202e-08 -2.4986012721967213e-06 0 -1.0138362684397755e-06 -2.1477114649594252e-06 0 -2.6935399146043646e-06 -2.4478134878078043e-06 0 -1.3508849789152593e-06 -2.4958448376040419e-06 0 2.7384189296813202e-08 -2.4986012721967213e-06 0 -2.6935399146043646e-06 -2.4478134878078043e-06 0 -4.3047820584081604e-06 -2.073770170742271e-06 0 -2.6935399146043646e-06 -2.4478134878078043e-06 0 -5.3174297274280846e-06 -1.8783930409463127e-06 0 -4.3047820584081604e-06 -2.073770170742271e-06 0 -5.3174297274280846e-06 -1.8783930409463127e-06 0 -6.6656078252709981e-06 -1.4242153088503805e-06 0 -5.3174297274280846e-06 -1.8783930409463127e-06 0 -8.2023484266114565e-06 -8.229613779746127e-07 0 -6.6656078252709981e-06 -1.4242153088503805e-06 0 -4.5217880186884989e-06 -1.5826738645066243e-06 0 -5.3174297274280846e-06 -1.8783930409463127e-06 0 -8.2023484266114565e-06 -8.229613779746127e-07 0 -4.5217880186884989e-06 -1.5826738645066243e-06 0 -9.4844562559210999e-06 7.299879580061746e-07 0 -8.2023484266114565e-06 -8.229613779746127e-07 0 -4.5163642039842213e-06 -4.677257912571387e-08 0 -4.5217880186884989e-06 -1.5826738645066243e-06 0 -9.4844562559210999e-06 7.299879580061746e-07 0 -9.4844562559210999e-06 7.299879580061746e-07 0 -8.2023484266114565e-06 -8.229613779746127e-07 0 -1.2779923270557381e-05 1.0592058478295945e-06 0 -8.2023484266114565e-06 -8.229613779746127e-07 0 -1.2779923270557381e-05 1.0592058478295945e-06 0 -1.0043323223985902e-05 -2.8456617177456096e-07 0 -9.4844562559210999e-06 7.299879580061746e-07 0 -1.2779923270557381e-05 1.0592058478295945e-06 0 -1.5826813846242436e-05 3.7726060050408839e-06 0 -1.2779923270557381e-05 1.0592058478295945e-06 0 -1.3041043911135283e-05 1.1955704468237857e-06 0 -1.7939852288307538e-05 3.6375360554736955e-06 0 -1.2779923270557381e-05 1.0592058478295945e-06 0 -1.3041043911135283e-05 1.1955704468237857e-06 0 -1.0043323223985902e-05 -2.8456617177456096e-07 0 -1.3041043911135283e-05 1.1955704468237857e-06 0 -1.0043323223985902e-05 -2.8456617177456096e-07 0 -8.8033216517925814e-06 -7.7102023821947579e-08 0 -8.2023484266114565e-06 -8.229613779746127e-07 0 -1.0043323223985902e-05 -2.8456617177456096e-07 0 -6.6656078252709981e-06 -1.4242153088503805e-06 0 -1.0043323223985902e-05 -2.8456617177456096e-07 0 -6.6656078252709981e-06 -1.4242153088503805e-06 0 -8.8033216517925814e-06 -7.7102023821947579e-08 0 -4.7965540492916026e-06 -1.2210208902635611e-06 0 -6.6656078252709981e-06 -1.4242153088503805e-06 0 -8.8033216517925814e-06 -7.7102023821947579e-08 0 -2.9547214691552422e-05 1.3898517646586934e-05 0 -2.5297353351765079e-05 1.402486254495886e-05 0 -2.0421645267916627e-05 8.6898278542336013e-06 0 -2.9547214691552422e-05 1.3898517646586934e-05 0 -2.5297353351765079e-05 1.402486254495886e-05 0 -3.6361929264411412e-05 2.236102861388509e-05 0 -2.5297353351765079e-05 1.402486254495886e-05 0 -2.0421645267916627e-05 8.6898278542336013e-06 0 -1.7112793131960165e-05 1.1562085350731369e-05 0 -2.5297353351765079e-05 1.402486254495886e-05 0 -1.7112793131960165e-05 1.1562085350731369e-05 0 -2.4547628232415536e-05 1.9174181769865018e-05 0 -2.9547214691552422e-05 1.3898517646586934e-05 0 -2.0421645267916627e-05 8.6898278542336013e-06 0 -2.3381273717385029e-05 7.7212911272918678e-06 0 -2.3381273717385029e-05 7.7212911272918678e-06 0 -1.7939852288307538e-05 3.6375360554736955e-06 0 -1.5826813846242436e-05 3.7726060050408839e-06 0 -1.2779923270557381e-05 1.0592058478295945e-06 0 -1.7939852288307538e-05 3.6375360554736955e-06 0 -1.5826813846242436e-05 3.7726060050408839e-06 0 -2.0421645267916627e-05 8.6898278542336013e-06 0 -2.3381273717385029e-05 7.7212911272918678e-06 0 -1.5826813846242436e-05 3.7726060050408839e-06 0 -2.0421645267916627e-05 8.6898278542336013e-06 0 -1.5826813846242436e-05 3.7726060050408839e-06 0 -1.1530173908597533e-05 5.1304433269419962e-06 0 -9.4844562559210999e-06 7.299879580061746e-07 0 -7.4597336587267812e-06 2.0052994600279532e-06 0 -1.1530173908597533e-05 5.1304433269419962e-06 0 -9.4844562559210999e-06 7.299879580061746e-07 0 -1.5826813846242436e-05 3.7726060050408839e-06 0 -1.1530173908597533e-05 5.1304433269419962e-06 0 -4.5163642039842213e-06 -4.677257912571387e-08 0 -9.4844562559210999e-06 7.299879580061746e-07 0 -7.4597336587267812e-06 2.0052994600279532e-06 0 -1.1530173908597533e-05 5.1304433269419962e-06 0 -1.7112793131960165e-05 1.1562085350731369e-05 0 -1.0457160720044829e-05 1.0529465320564981e-05 0 -2.0421645267916627e-05 8.6898278542336013e-06 0 -1.1530173908597533e-05 5.1304433269419962e-06 0 -1.7112793131960165e-05 1.1562085350731369e-05 0 -1.7112793131960165e-05 1.1562085350731369e-05 0 -1.0457160720044829e-05 1.0529465320564981e-05 0 -1.5021427901659952e-05 1.7493594978452208e-05 0 -1.0457160720044829e-05 1.0529465320564981e-05 0 -4.284756884233781e-06 6.5070489590294233e-06 0 -4.1691241017870043e-06 1.4483526032465279e-05 0 -4.284756884233781e-06 6.5070489590294233e-06 0 9.8450270276971103e-07 8.2054846721752036e-06 0 -4.1691241017870043e-06 1.4483526032465279e-05 0 -4.284756884233781e-06 6.5070489590294233e-06 0 1.5293186394899357e-07 3.6604278884909959e-06 0 9.8450270276971103e-07 8.2054846721752036e-06 0 -1.1530173908597533e-05 5.1304433269419962e-06 0 -1.0457160720044829e-05 1.0529465320564981e-05 0 -4.284756884233781e-06 6.5070489590294233e-06 0 -1.1530173908597533e-05 5.1304433269419962e-06 0 -4.284756884233781e-06 6.5070489590294233e-06 0 -4.1731761448438693e-06 2.855621870851635e-06 0 -7.4597336587267812e-06 2.0052994600279532e-06 0 -1.1530173908597533e-05 5.1304433269419962e-06 0 -4.1731761448438693e-06 2.855621870851635e-06 0 -4.5163642039842213e-06 -4.677257912571387e-08 0 -7.4597336587267812e-06 2.0052994600279532e-06 0 -4.1731761448438693e-06 2.855621870851635e-06 0 -4.5163642039842213e-06 -4.677257912571387e-08 0 -4.1731761448438693e-06 2.855621870851635e-06 0 -5.6875075432565912e-07 6.9366281572431442e-07 0 -4.1731761448438693e-06 2.855621870851635e-06 0 -5.6875075432565912e-07 6.9366281572431442e-07 0 1.5293186394899357e-07 3.6604278884909959e-06 0 -4.284756884233781e-06 6.5070489590294233e-06 0 -4.1731761448438693e-06 2.855621870851635e-06 0 1.5293186394899357e-07 3.6604278884909959e-06 0 -5.6875075432565912e-07 6.9366281572431442e-07 0 1.5293186394899357e-07 3.6604278884909959e-06 0 3.1856175506461586e-06 1.5611701980049948e-06 0 1.5293186394899357e-07 3.6604278884909959e-06 0 3.1856175506461586e-06 1.5611701980049948e-06 0 4.7958346980354705e-06 5.1258068400715027e-06 0 1.9237690460989651e-06 -8.4421878658255322e-07 0 -5.6875075432565912e-07 6.9366281572431442e-07 0 3.1856175506461586e-06 1.5611701980049948e-06 0 3.1856175506461586e-06 1.5611701980049948e-06 0 5.0753908567323138e-06 5.7875443561181726e-07 0 6.9239829498995032e-06 2.6539820230433355e-06 0 1.9237690460989651e-06 -8.4421878658255322e-07 0 3.1856175506461586e-06 1.5611701980049948e-06 0 5.0753908567323138e-06 5.7875443561181726e-07 0 3.1856175506461586e-06 1.5611701980049948e-06 0 4.7958346980354705e-06 5.1258068400715027e-06 0 6.9239829498995032e-06 2.6539820230433355e-06 0 4.7958346980354705e-06 5.1258068400715027e-06 0 6.9239829498995032e-06 2.6539820230433355e-06 0 1.0132987228849597e-05 6.4633231715867972e-06 0 1.5293186394899357e-07 3.6604278884909959e-06 0 4.7958346980354705e-06 5.1258068400715027e-06 0 9.8450270276971103e-07 8.2054846721752036e-06 0 4.7958346980354705e-06 5.1258068400715027e-06 0 9.8450270276971103e-07 8.2054846721752036e-06 0 6.2085612469471416e-06 1.0779149123651959e-05 0 4.7958346980354705e-06 5.1258068400715027e-06 0 6.2085612469471416e-06 1.0779149123651959e-05 0 1.0132987228849597e-05 6.4633231715867972e-06 0 6.2085612469471416e-06 1.0779149123651959e-05 0 1.0591288523320979e-05 1.5760038547727515e-05 0 1.3934141160633899e-05 1.1010959972782064e-05 0 6.2085612469471416e-06 1.0779149123651959e-05 0 1.0132987228849597e-05 6.4633231715867972e-06 0 1.3934141160633899e-05 1.1010959972782064e-05 0 6.2085612469471416e-06 1.0779149123651959e-05 0 3.3132568327339458e-06 1.823766420635943e-05 0 -4.1691241017870043e-06 1.4483526032465279e-05 0 9.8450270276971103e-07 8.2054846721752036e-06 0 6.2085612469471416e-06 1.0779149123651959e-05 0 -4.1691241017870043e-06 1.4483526032465279e-05 0 6.2085612469471416e-06 1.0779149123651959e-05 0 3.3132568327339458e-06 1.823766420635943e-05 0 1.0591288523320979e-05 1.5760038547727515e-05 0 1.0591288523320979e-05 1.5760038547727515e-05 0 8.3056460194559416e-06 2.5456694026656405e-05 0 1.8198374939831818e-05 1.7713027306669802e-05 0 8.3056460194559416e-06 2.5456694026656405e-05 0 1.8198374939831818e-05 1.7713027306669802e-05 0 1.73135064542888e-05 3.4512822001188807e-05 0 8.3056460194559416e-06 2.5456694026656405e-05 0 8.3884334806423859e-06 3.8695198732521082e-05 0 1.73135064542888e-05 3.4512822001188807e-05 0 8.3056460194559416e-06 2.5456694026656405e-05 0 -1.3639160587014627e-06 4.1776820209565442e-05 0 8.3884334806423859e-06 3.8695198732521082e-05 0 3.3132568327339458e-06 1.823766420635943e-05 0 8.3056460194559416e-06 2.5456694026656405e-05 0 -5.213913393945979e-06 2.7806074874726859e-05 0 3.3132568327339458e-06 1.823766420635943e-05 0 1.0591288523320979e-05 1.5760038547727515e-05 0 8.3056460194559416e-06 2.5456694026656405e-05 0 8.3056460194559416e-06 2.5456694026656405e-05 0 -5.213913393945979e-06 2.7806074874726859e-05 0 -1.3639160587014627e-06 4.1776820209565442e-05 0 -5.213913393945979e-06 2.7806074874726859e-05 0 -1.4865451933505412e-05 4.3635885670324885e-05 0 -1.3639160587014627e-06 4.1776820209565442e-05 0 -5.213913393945979e-06 2.7806074874726859e-05 0 -1.3498428783935374e-05 2.5752827061569919e-05 0 -1.4865451933505412e-05 4.3635885670324885e-05 0 -5.213913393945979e-06 2.7806074874726859e-05 0 -4.1691241017870043e-06 1.4483526032465279e-05 0 -1.3498428783935374e-05 2.5752827061569919e-05 0 -4.1691241017870043e-06 1.4483526032465279e-05 0 -1.5021427901659952e-05 1.7493594978452208e-05 0 -1.3498428783935374e-05 2.5752827061569919e-05 0 3.3132568327339458e-06 1.823766420635943e-05 0 -5.213913393945979e-06 2.7806074874726859e-05 0 -4.1691241017870043e-06 1.4483526032465279e-05 0 -1.0457160720044829e-05 1.0529465320564981e-05 0 -4.1691241017870043e-06 1.4483526032465279e-05 0 -1.5021427901659952e-05 1.7493594978452208e-05 0 -1.7112793131960165e-05 1.1562085350731369e-05 0 -1.5021427901659952e-05 1.7493594978452208e-05 0 -2.4547628232415536e-05 1.9174181769865018e-05 0 -1.5021427901659952e-05 1.7493594978452208e-05 0 -2.242669356740149e-05 2.6897066246742501e-05 0 -2.4547628232415536e-05 1.9174181769865018e-05 0 -1.5021427901659952e-05 1.7493594978452208e-05 0 -2.242669356740149e-05 2.6897066246742501e-05 0 -1.3498428783935374e-05 2.5752827061569919e-05 0 -2.242669356740149e-05 2.6897066246742501e-05 0 -1.3498428783935374e-05 2.5752827061569919e-05 0 -2.3251807628382877e-05 3.6926052094910537e-05 0 -1.3498428783935374e-05 2.5752827061569919e-05 0 -2.3251807628382877e-05 3.6926052094910537e-05 0 -1.4865451933505412e-05 4.3635885670324885e-05 0 -2.3251807628382877e-05 3.6926052094910537e-05 0 -3.3621735971396553e-05 3.7842605400185279e-05 0 -3.2951858911411318e-05 5.3375032022271448e-05 0 -2.3251807628382877e-05 3.6926052094910537e-05 0 -3.2951858911411318e-05 5.3375032022271448e-05 0 -1.4865451933505412e-05 4.3635885670324885e-05 0 -2.242669356740149e-05 2.6897066246742501e-05 0 -2.3251807628382877e-05 3.6926052094910537e-05 0 -3.3621735971396553e-05 3.7842605400185279e-05 0 -2.242669356740149e-05 2.6897066246742501e-05 0 -3.3621735971396553e-05 3.7842605400185279e-05 0 -3.2077560286132639e-05 2.7485014335780066e-05 0 -3.3621735971396553e-05 3.7842605400185279e-05 0 -4.972631060174325e-05 4.902466701950244e-05 0 -3.2951858911411318e-05 5.3375032022271448e-05 0 -3.3621735971396553e-05 3.7842605400185279e-05 0 -4.3376470847662278e-05 3.4148319195699642e-05 0 -4.972631060174325e-05 4.902466701950244e-05 0 -3.3621735971396553e-05 3.7842605400185279e-05 0 -4.3376470847662278e-05 3.4148319195699642e-05 0 -3.2077560286132639e-05 2.7485014335780066e-05 0 -4.3376470847662278e-05 3.4148319195699642e-05 0 -3.2077560286132639e-05 2.7485014335780066e-05 0 -3.6361929264411412e-05 2.236102861388509e-05 0 -3.2077560286132639e-05 2.7485014335780066e-05 0 -2.4547628232415536e-05 1.9174181769865018e-05 0 -3.6361929264411412e-05 2.236102861388509e-05 0 -2.242669356740149e-05 2.6897066246742501e-05 0 -3.2077560286132639e-05 2.7485014335780066e-05 0 -2.4547628232415536e-05 1.9174181769865018e-05 0 -2.5297353351765079e-05 1.402486254495886e-05 0 -2.4547628232415536e-05 1.9174181769865018e-05 0 -3.6361929264411412e-05 2.236102861388509e-05 0 1.2303320583403274e-05 2.3291039162279375e-06 0 1.2128765311685413e-05 2.7427844306328398e-06 0 1.3800836795232441e-05 3.548385707961657e-06 0 1.2128765311685413e-05 2.7427844306328398e-06 0 1.3800836795232441e-05 3.548385707961657e-06 0 1.4479741587552283e-05 4.8097009385016897e-06 0 1.3800836795232441e-05 3.548385707961657e-06 0 1.4479741587552283e-05 4.8097009385016897e-06 0 1.6197461958498582e-05 5.5606358192080281e-06 0 1.2303320583403274e-05 2.3291039162279375e-06 0 1.3800836795232441e-05 3.548385707961657e-06 0 1.332177407377766e-05 2.1575057319604649e-06 0 1.332177407377766e-05 2.1575057319604649e-06 0 1.130291808265218e-05 1.1053282961105856e-06 0 1.2076055778456797e-05 4.3988124918353806e-08 0 1.2303320583403274e-05 2.3291039162279375e-06 0 1.332177407377766e-05 2.1575057319604649e-06 0 1.130291808265218e-05 1.1053282961105856e-06 0 1.0631266660534151e-05 -3.4661533402159614e-07 0 1.130291808265218e-05 1.1053282961105856e-06 0 1.2076055778456797e-05 4.3988124918353806e-08 0 1.2303320583403274e-05 2.3291039162279375e-06 0 1.130291808265218e-05 1.1053282961105856e-06 0 1.0705016268716585e-05 1.6420215563282919e-06 0 1.130291808265218e-05 1.1053282961105856e-06 0 9.4745759245592325e-06 8.7903595799184028e-07 0 1.0705016268716585e-05 1.6420215563282919e-06 0 9.5090787765946445e-06 1.5387890132619004e-07 0 1.130291808265218e-05 1.1053282961105856e-06 0 9.4745759245592325e-06 8.7903595799184028e-07 0 7.8618341709922346e-06 9.1707783090771525e-07 0 9.4745759245592325e-06 8.7903595799184028e-07 0 8.9998832312893006e-06 1.065240740818914e-06 0 9.4745759245592325e-06 8.7903595799184028e-07 0 8.9998832312893006e-06 1.065240740818914e-06 0 1.0705016268716585e-05 1.6420215563282919e-06 0 8.9998832312893006e-06 1.065240740818914e-06 0 1.0705016268716585e-05 1.6420215563282919e-06 0 9.879643991337963e-06 1.3677335909143453e-06 0 1.2303320583403274e-05 2.3291039162279375e-06 0 1.2128765311685413e-05 2.7427844306328398e-06 0 1.0705016268716585e-05 1.6420215563282919e-06 0 1.2128765311685413e-05 2.7427844306328398e-06 0 1.0705016268716585e-05 1.6420215563282919e-06 0 9.879643991337963e-06 1.3677335909143453e-06 0 1.2128765311685413e-05 2.7427844306328398e-06 0 9.879643991337963e-06 1.3677335909143453e-06 0 9.9951451326628643e-06 1.7685254279550736e-06 0 8.7928010564494072e-06 9.1544554428367461e-07 0 9.879643991337963e-06 1.3677335909143453e-06 0 9.9951451326628643e-06 1.7685254279550736e-06 0 6.9852211091170124e-06 -1.7277822131172691e-08 0 9.9951451326628643e-06 1.7685254279550736e-06 0 7.6348465046747857e-06 1.0676704898145748e-06 0 9.9951451326628643e-06 1.7685254279550736e-06 0 1.0268902712940142e-05 3.392397338599916e-06 0 1.2173119485191212e-05 3.5822855640545791e-06 0 9.9951451326628643e-06 1.7685254279550736e-06 0 7.6348465046747857e-06 1.0676704898145748e-06 0 1.0268902712940142e-05 3.392397338599916e-06 0 1.2128765311685413e-05 2.7427844306328398e-06 0 9.9951451326628643e-06 1.7685254279550736e-06 0 1.2173119485191212e-05 3.5822855640545791e-06 0 5.0753908567323138e-06 5.7875443561181726e-07 0 7.6348465046747857e-06 1.0676704898145748e-06 0 6.9239829498995032e-06 2.6539820230433355e-06 0 7.6348465046747857e-06 1.0676704898145748e-06 0 6.9239829498995032e-06 2.6539820230433355e-06 0 1.0268902712940142e-05 3.392397338599916e-06 0 6.9239829498995032e-06 2.6539820230433355e-06 0 1.0268902712940142e-05 3.392397338599916e-06 0 1.0132987228849597e-05 6.4633231715867972e-06 0 1.0268902712940142e-05 3.392397338599916e-06 0 1.4188274590493357e-05 6.4597318964899279e-06 0 1.0132987228849597e-05 6.4633231715867972e-06 0 1.4188274590493357e-05 6.4597318964899279e-06 0 1.0132987228849597e-05 6.4633231715867972e-06 0 1.3934141160633899e-05 1.1010959972782064e-05 0 1.2128765311685413e-05 2.7427844306328398e-06 0 1.2173119485191212e-05 3.5822855640545791e-06 0 1.4479741587552283e-05 4.8097009385016897e-06 0 1.0268902712940142e-05 3.392397338599916e-06 0 1.4188274590493357e-05 6.4597318964899279e-06 0 1.2173119485191212e-05 3.5822855640545791e-06 0 1.4188274590493357e-05 6.4597318964899279e-06 0 1.2173119485191212e-05 3.5822855640545791e-06 0 1.4479741587552283e-05 4.8097009385016897e-06 0 1.4188274590493357e-05 6.4597318964899279e-06 0 1.4479741587552283e-05 4.8097009385016897e-06 0 1.7106950840657934e-05 7.5389370846410322e-06 0 1.4479741587552283e-05 4.8097009385016897e-06 0 1.7106950840657934e-05 7.5389370846410322e-06 0 1.6197461958498582e-05 5.5606358192080281e-06 0 1.4188274590493357e-05 6.4597318964899279e-06 0 1.7106950840657934e-05 7.5389370846410322e-06 0 2.0389281612672384e-05 1.1793645699780784e-05 0 1.7106950840657934e-05 7.5389370846410322e-06 0 2.0389281612672384e-05 1.1793645699780784e-05 0 1.9498147347386881e-05 8.3978220194135442e-06 0 1.9498147347386881e-05 8.3978220194135442e-06 0 1.70806388831383e-05 4.9288163446717871e-06 0 1.6197461958498582e-05 5.5606358192080281e-06 0 1.7106950840657934e-05 7.5389370846410322e-06 0 1.9498147347386881e-05 8.3978220194135442e-06 0 1.6197461958498582e-05 5.5606358192080281e-06 0 1.4188274590493357e-05 6.4597318964899279e-06 0 1.3934141160633899e-05 1.1010959972782064e-05 0 2.0389281612672384e-05 1.1793645699780784e-05 0 1.3934141160633899e-05 1.1010959972782064e-05 0 2.0389281612672384e-05 1.1793645699780784e-05 0 1.8198374939831818e-05 1.7713027306669802e-05 0 1.0591288523320979e-05 1.5760038547727515e-05 0 1.3934141160633899e-05 1.1010959972782064e-05 0 1.8198374939831818e-05 1.7713027306669802e-05 0 2.0389281612672384e-05 1.1793645699780784e-05 0 1.8198374939831818e-05 1.7713027306669802e-05 0 3.0762924290893925e-05 1.9188667013402417e-05 0 1.8198374939831818e-05 1.7713027306669802e-05 0 3.0762924290893925e-05 1.9188667013402417e-05 0 1.73135064542888e-05 3.4512822001188807e-05 0 2.0389281612672384e-05 1.1793645699780784e-05 0 2.2775379085364073e-05 1.1503153500106155e-05 0 3.0762924290893925e-05 1.9188667013402417e-05 0 1.9498147347386881e-05 8.3978220194135442e-06 0 2.2775379085364073e-05 1.1503153500106155e-05 0 1.8563826536273443e-05 5.154535119485335e-06 0 1.9498147347386881e-05 8.3978220194135442e-06 0 1.8563826536273443e-05 5.154535119485335e-06 0 1.70806388831383e-05 4.9288163446717871e-06 0 2.0389281612672384e-05 1.1793645699780784e-05 0 1.9498147347386881e-05 8.3978220194135442e-06 0 2.2775379085364073e-05 1.1503153500106155e-05 0 2.2775379085364073e-05 1.1503153500106155e-05 0 1.8563826536273443e-05 5.154535119485335e-06 0 2.0085755843912028e-05 2.2703751167090435e-06 0 1.8563826536273443e-05 5.154535119485335e-06 0 1.7925418749169161e-05 -2.498837375658186e-06 0 2.0085755843912028e-05 2.2703751167090435e-06 0 1.8563826536273443e-05 5.154535119485335e-06 0 1.5815752601102586e-05 9.6041719183507151e-07 0 1.7925418749169161e-05 -2.498837375658186e-06 0 1.8563826536273443e-05 5.154535119485335e-06 0 1.5815752601102586e-05 9.6041719183507151e-07 0 1.70806388831383e-05 4.9288163446717871e-06 0 1.70806388831383e-05 4.9288163446717871e-06 0 1.5154284029240866e-05 3.4817670873010046e-06 0 1.6197461958498582e-05 5.5606358192080281e-06 0 1.5815752601102586e-05 9.6041719183507151e-07 0 1.70806388831383e-05 4.9288163446717871e-06 0 1.5154284029240866e-05 3.4817670873010046e-06 0 1.5815752601102586e-05 9.6041719183507151e-07 0 1.5154284029240866e-05 3.4817670873010046e-06 0 1.3856614921196952e-05 4.0931840461956876e-07 0 1.332177407377766e-05 2.1575057319604649e-06 0 1.5154284029240866e-05 3.4817670873010046e-06 0 1.3856614921196952e-05 4.0931840461956876e-07 0 1.3800836795232441e-05 3.548385707961657e-06 0 1.332177407377766e-05 2.1575057319604649e-06 0 1.5154284029240866e-05 3.4817670873010046e-06 0 1.3800836795232441e-05 3.548385707961657e-06 0 1.5154284029240866e-05 3.4817670873010046e-06 0 1.6197461958498582e-05 5.5606358192080281e-06 0 1.332177407377766e-05 2.1575057319604649e-06 0 1.2076055778456797e-05 4.3988124918353806e-08 0 1.3856614921196952e-05 4.0931840461956876e-07 0 1.2152370020378546e-05 -2.650268640422866e-06 0 1.2076055778456797e-05 4.3988124918353806e-08 0 1.3856614921196952e-05 4.0931840461956876e-07 0 1.5815752601102586e-05 9.6041719183507151e-07 0 1.3899737611076902e-05 -3.2157933280939119e-06 0 1.6171297335110856e-05 -7.1951713178045045e-06 0 1.2152370020378546e-05 -2.650268640422866e-06 0 1.2715289529162434e-05 -6.1103407014708833e-06 0 1.3899737611076902e-05 -3.2157933280939119e-06 0 1.2152370020378546e-05 -2.650268640422866e-06 0 1.3856614921196952e-05 4.0931840461956876e-07 0 1.3899737611076902e-05 -3.2157933280939119e-06 0 1.5815752601102586e-05 9.6041719183507151e-07 0 1.3856614921196952e-05 4.0931840461956876e-07 0 1.3899737611076902e-05 -3.2157933280939119e-06 0 1.2715289529162434e-05 -6.1103407014708833e-06 0 1.3899737611076902e-05 -3.2157933280939119e-06 0 1.4416191555008494e-05 -8.9045608071134771e-06 0 1.3899737611076902e-05 -3.2157933280939119e-06 0 1.6171297335110856e-05 -7.1951713178045045e-06 0 1.4416191555008494e-05 -8.9045608071134771e-06 0 1.6171297335110856e-05 -7.1951713178045045e-06 0 1.4416191555008494e-05 -8.9045608071134771e-06 0 1.7604558274394473e-05 -1.2268119770548709e-05 0 1.6171297335110856e-05 -7.1951713178045045e-06 0 1.7604558274394473e-05 -1.2268119770548709e-05 0 1.9591895385428693e-05 -1.1527321333206901e-05 0 1.4416191555008494e-05 -8.9045608071134771e-06 0 1.567703865482172e-05 -1.3017972333053656e-05 0 1.7604558274394473e-05 -1.2268119770548709e-05 0 1.567703865482172e-05 -1.3017972333053656e-05 0 1.7604558274394473e-05 -1.2268119770548709e-05 0 1.9991850298933479e-05 -1.720551431857795e-05 0 1.7604558274394473e-05 -1.2268119770548709e-05 0 1.9991850298933479e-05 -1.720551431857795e-05 0 1.9591895385428693e-05 -1.1527321333206901e-05 0 1.567703865482172e-05 -1.3017972333053656e-05 0 1.9991850298933479e-05 -1.720551431857795e-05 0 1.6811276039595027e-05 -1.665994797441101e-05 0 2.5044487284045094e-05 -1.4879620581298585e-05 0 2.8176277274414169e-05 -1.9564331879474055e-05 0 2.4443258369467869e-05 -1.854756980683438e-05 0 1.9591895385428693e-05 -1.1527321333206901e-05 0 2.5044487284045094e-05 -1.4879620581298585e-05 0 2.4443258369467869e-05 -1.854756980683438e-05 0 1.9991850298933479e-05 -1.720551431857795e-05 0 1.9591895385428693e-05 -1.1527321333206901e-05 0 2.4443258369467869e-05 -1.854756980683438e-05 0 1.9591895385428693e-05 -1.1527321333206901e-05 0 2.1317659007325197e-05 -6.0259478470884343e-06 0 2.5044487284045094e-05 -1.4879620581298585e-05 0 1.5815752601102586e-05 9.6041719183507151e-07 0 1.6171297335110856e-05 -7.1951713178045045e-06 0 1.7925418749169161e-05 -2.498837375658186e-06 0 1.9591895385428693e-05 -1.1527321333206901e-05 0 1.7925418749169161e-05 -2.498837375658186e-06 0 2.1317659007325197e-05 -6.0259478470884343e-06 0 1.6171297335110856e-05 -7.1951713178045045e-06 0 1.9591895385428693e-05 -1.1527321333206901e-05 0 1.7925418749169161e-05 -2.498837375658186e-06 0 1.7925418749169161e-05 -2.498837375658186e-06 0 2.0085755843912028e-05 2.2703751167090435e-06 0 2.1317659007325197e-05 -6.0259478470884343e-06 0 2.2775379085364073e-05 1.1503153500106155e-05 0 2.0085755843912028e-05 2.2703751167090435e-06 0 2.3683749575053194e-05 2.5690173290245681e-06 0 2.0085755843912028e-05 2.2703751167090435e-06 0 2.3683749575053194e-05 2.5690173290245681e-06 0 2.1317659007325197e-05 -6.0259478470884343e-06 0 2.2775379085364073e-05 1.1503153500106155e-05 0 2.3683749575053194e-05 2.5690173290245681e-06 0 3.0762924290893925e-05 1.9188667013402417e-05 0 2.3683749575053194e-05 2.5690173290245681e-06 0 3.3820466147449035e-05 -5.3824552639416954e-06 0 2.780467793247959e-05 -1.1107249875881261e-05 0 2.3683749575053194e-05 2.5690173290245681e-06 0 2.1317659007325197e-05 -6.0259478470884343e-06 0 2.780467793247959e-05 -1.1107249875881261e-05 0 3.0762924290893925e-05 1.9188667013402417e-05 0 2.4998391466786765e-05 5.7742873581430173e-05 0 1.73135064542888e-05 3.4512822001188807e-05 0 2.3683749575053194e-05 2.5690173290245681e-06 0 3.0762924290893925e-05 1.9188667013402417e-05 0 3.3820466147449035e-05 -5.3824552639416954e-06 0 1.2758789267391131e-05 1.6514655483662765e-05 0 4.4753078116674543e-05 2.6722775463391213e-05 0 3.0762924290893925e-05 1.9188667013402417e-05 0 4.3872403509840236e-05 5.5974594518802342e-05 0 2.4998391466786765e-05 5.7742873581430173e-05 0 2.4998391466786765e-05 5.7742873581430173e-05 0 5.0010174958147441e-05 8.1277407624689266e-05 0 2.4287764688120194e-05 7.923232041213365e-05 0 4.4753078116674543e-05 2.6722775463391213e-05 0 4.1087479621254159e-05 3.3506990449597081e-05 0 3.3820466147449035e-05 -5.3824552639416954e-06 0 3.4218273238954449e-05 -1.411974380922485e-05 0 2.780467793247959e-05 -1.1107249875881261e-05 0 4.3872403509840236e-05 5.5974594518802342e-05 0 2.4998391466786765e-05 5.7742873581430173e-05 0 5.0010174958147441e-05 8.1277407624689266e-05 0 4.1087479621254159e-05 3.3506990449597081e-05 0 4.5428687734379163e-05 4.2609369615339364e-05 0 3.4218273238954449e-05 -1.411974380922485e-05 0 3.0952763017850296e-05 -1.7764846698728834e-05 0 3.4891641103973025e-05 -1.8710508316267122e-05 0 5.0010174958147441e-05 8.1277407624689266e-05 0 3.8573343265237346e-05 9.6361737046865293e-05 0 2.4287764688120194e-05 7.923232041213365e-05 0 2.1317659007325197e-05 -6.0259478470884343e-06 0 2.780467793247959e-05 -1.1107249875881261e-05 0 2.5044487284045094e-05 -1.4879620581298585e-05 0 3.4218273238954449e-05 -1.411974380922485e-05 0 2.780467793247959e-05 -1.1107249875881261e-05 0 3.0952763017850296e-05 -1.7764846698728834e-05 0 2.780467793247959e-05 -1.1107249875881261e-05 0 3.0952763017850296e-05 -1.7764846698728834e-05 0 2.5044487284045094e-05 -1.4879620581298585e-05 0 3.0952763017850296e-05 -1.7764846698728834e-05 0 2.5044487284045094e-05 -1.4879620581298585e-05 0 2.8176277274414169e-05 -1.9564331879474055e-05 0 3.0952763017850296e-05 -1.7764846698728834e-05 0 2.8176277274414169e-05 -1.9564331879474055e-05 0 3.2487210865210224e-05 -2.1901733021703255e-05 0 3.0952763017850296e-05 -1.7764846698728834e-05 0 3.2487210865210224e-05 -2.1901733021703255e-05 0 3.4891641103973025e-05 -1.8710508316267122e-05 0 3.2487210865210224e-05 -2.1901733021703255e-05 0 3.4891641103973025e-05 -1.8710508316267122e-05 0 3.6347307007963264e-05 -2.1355652351494189e-05 0 2.8176277274414169e-05 -1.9564331879474055e-05 0 3.2487210865210224e-05 -2.1901733021703255e-05 0 2.8865279825343976e-05 -2.2419783349496679e-05 0 3.8573343265237346e-05 9.6361737046865293e-05 0 4.2293757860849011e-05 0.00011082337775540101 0 2.4098783535338044e-05 0.00010355298359489181 0 3.8573343265237346e-05 9.6361737046865293e-05 0 5.4712517745548603e-05 0.00010363788178040184 0 4.2293757860849011e-05 0.00011082337775540101 0 5.0010174958147441e-05 8.1277407624689266e-05 0 3.8573343265237346e-05 9.6361737046865293e-05 0 5.4712517745548603e-05 0.00010363788178040184 0 4.5428687734379163e-05 4.2609369615339364e-05 0 4.7614342422922999e-05 5.2079152521983989e-05 0 5.4712517745548603e-05 0.00010363788178040184 0 4.2293757860849011e-05 0.00011082337775540101 0 5.8669096975980892e-05 0.00012553058152805921 0 4.2293757860849011e-05 0.00011082337775540101 0 5.8669096975980892e-05 0.00012553058152805921 0 3.5583906656765515e-05 0.00012347969569551507 0 5.8669096975980892e-05 0.00012553058152805921 0 4.3518555928174757e-05 0.00013804805205738105 0 3.5583906656765515e-05 0.00012347969569551507 0 5.8669096975980892e-05 0.00012553058152805921 0 6.2339798809823844e-05 0.00014712783407798169 0 4.3518555928174757e-05 0.00013804805205738105 0 3.6347307007963264e-05 -2.1355652351494189e-05 0 3.8214041517668017e-05 -2.3001135758976654e-05 0 3.550718078249423e-05 -2.3897769983982161e-05 0 4.7614342422922999e-05 5.2079152521983989e-05 0 5.0424145959227842e-05 6.2057526162237172e-05 0 6.2339798809823844e-05 0.00014712783407798169 0 4.3518555928174757e-05 0.00013804805205738105 0 4.0211282617028621e-05 0.00015322745692810137 0 3.2487210865210224e-05 -2.1901733021703255e-05 0 3.2370010164828665e-05 -2.4522801111063104e-05 0 3.550718078249423e-05 -2.3897769983982161e-05 0 3.2487210865210224e-05 -2.1901733021703255e-05 0 3.2370010164828665e-05 -2.4522801111063104e-05 0 2.8865279825343976e-05 -2.2419783349496679e-05 0 3.2487210865210224e-05 -2.1901733021703255e-05 0 3.6347307007963264e-05 -2.1355652351494189e-05 0 3.550718078249423e-05 -2.3897769983982161e-05 0 3.2370010164828665e-05 -2.4522801111063104e-05 0 3.550718078249423e-05 -2.3897769983982161e-05 0 3.396493453283581e-05 -2.6286816718908973e-05 0 3.550718078249423e-05 -2.3897769983982161e-05 0 3.396493453283581e-05 -2.6286816718908973e-05 0 3.7799561389307533e-05 -2.5736843536586124e-05 0 3.2370010164828665e-05 -2.4522801111063104e-05 0 3.396493453283581e-05 -2.6286816718908973e-05 0 2.8759762164714655e-05 -2.5252558788191399e-05 0 3.396493453283581e-05 -2.6286816718908973e-05 0 2.8759762164714655e-05 -2.5252558788191399e-05 0 3.2745551645376317e-05 -2.7896197716586439e-05 0 3.2370010164828665e-05 -2.4522801111063104e-05 0 2.8759762164714655e-05 -2.5252558788191399e-05 0 2.8865279825343976e-05 -2.2419783349496679e-05 0 2.8759762164714655e-05 -2.5252558788191399e-05 0 2.2906819617911112e-05 -2.2061726651964533e-05 0 2.5588601285855026e-05 -2.2162724723954265e-05 0 2.8759762164714655e-05 -2.5252558788191399e-05 0 2.8865279825343976e-05 -2.2419783349496679e-05 0 2.5588601285855026e-05 -2.2162724723954265e-05 0 2.8759762164714655e-05 -2.5252558788191399e-05 0 2.4433083005369408e-05 -2.4838324805537228e-05 0 2.8998101838836259e-05 -2.8282058364472883e-05 0 2.4433083005369408e-05 -2.4838324805537228e-05 0 2.8998101838836259e-05 -2.8282058364472883e-05 0 2.3570714168792754e-05 -2.6250501969394129e-05 0 2.4433083005369408e-05 -2.4838324805537228e-05 0 2.2906819617911112e-05 -2.2061726651964533e-05 0 2.0774811146773395e-05 -2.3018647579123279e-05 0 2.8759762164714655e-05 -2.5252558788191399e-05 0 2.4433083005369408e-05 -2.4838324805537228e-05 0 2.2906819617911112e-05 -2.2061726651964533e-05 0 1.9991850298933479e-05 -1.720551431857795e-05 0 2.2906819617911112e-05 -2.2061726651964533e-05 0 2.5588601285855026e-05 -2.2162724723954265e-05 0 2.2906819617911112e-05 -2.2061726651964533e-05 0 1.956661631325539e-05 -1.9956812977191897e-05 0 2.0774811146773395e-05 -2.3018647579123279e-05 0 1.9991850298933479e-05 -1.720551431857795e-05 0 2.2906819617911112e-05 -2.2061726651964533e-05 0 1.956661631325539e-05 -1.9956812977191897e-05 0 1.9991850298933479e-05 -1.720551431857795e-05 0 1.6811276039595027e-05 -1.665994797441101e-05 0 1.956661631325539e-05 -1.9956812977191897e-05 0 1.9991850298933479e-05 -1.720551431857795e-05 0 2.4443258369467869e-05 -1.854756980683438e-05 0 2.5588601285855026e-05 -2.2162724723954265e-05 0 2.8176277274414169e-05 -1.9564331879474055e-05 0 2.4443258369467869e-05 -1.854756980683438e-05 0 2.8865279825343976e-05 -2.2419783349496679e-05 0 2.4443258369467869e-05 -1.854756980683438e-05 0 2.8865279825343976e-05 -2.2419783349496679e-05 0 2.5588601285855026e-05 -2.2162724723954265e-05 0 -5.9164879949964488e-05 8.6670283387144123e-05 0 -4.1403187661364404e-05 9.3848775783618348e-05 0 -4.3359851873049758e-05 7.4505315367126882e-05 0 -5.9164879949964488e-05 8.6670283387144123e-05 0 -4.1403187661364404e-05 9.3848775783618348e-05 0 -6.1883104406014098e-05 0.00010796898244465566 0 -4.1403187661364404e-05 9.3848775783618348e-05 0 -4.3359851873049758e-05 7.4505315367126882e-05 0 -2.929980617387375e-05 7.4414627482728465e-05 0 -5.9164879949964488e-05 8.6670283387144123e-05 0 -4.3359851873049758e-05 7.4505315367126882e-05 0 -5.4798406166453301e-05 6.6608896832079462e-05 0 -5.4798406166453301e-05 6.6608896832079462e-05 0 -4.972631060174325e-05 4.902466701950244e-05 0 -3.2951858911411318e-05 5.3375032022271448e-05 0 -4.3359851873049758e-05 7.4505315367126882e-05 0 -3.2951858911411318e-05 5.3375032022271448e-05 0 -2.929980617387375e-05 7.4414627482728465e-05 0 -4.3359851873049758e-05 7.4505315367126882e-05 0 -5.4798406166453301e-05 6.6608896832079462e-05 0 -3.2951858911411318e-05 5.3375032022271448e-05 0 -3.2951858911411318e-05 5.3375032022271448e-05 0 -1.9683309180748557e-05 6.1741066985475899e-05 0 -2.929980617387375e-05 7.4414627482728465e-05 0 -3.2951858911411318e-05 5.3375032022271448e-05 0 -1.4865451933505412e-05 4.3635885670324885e-05 0 -1.9683309180748557e-05 6.1741066985475899e-05 0 -1.9683309180748557e-05 6.1741066985475899e-05 0 -1.7496848612571808e-05 7.5887541117494563e-05 0 -7.1427391415733767e-06 6.4214481799024659e-05 0 -1.9683309180748557e-05 6.1741066985475899e-05 0 -1.7496848612571808e-05 7.5887541117494563e-05 0 -2.929980617387375e-05 7.4414627482728465e-05 0 -1.7496848612571808e-05 7.5887541117494563e-05 0 -2.929980617387375e-05 7.4414627482728465e-05 0 -2.3432715942829715e-05 9.1873677890389797e-05 0 -4.1403187661364404e-05 9.3848775783618348e-05 0 -2.929980617387375e-05 7.4414627482728465e-05 0 -2.3432715942829715e-05 9.1873677890389797e-05 0 -1.7496848612571808e-05 7.5887541117494563e-05 0 -2.3432715942829715e-05 9.1873677890389797e-05 0 -7.6893234979267161e-06 8.8627808181940442e-05 0 -7.6893234979267161e-06 8.8627808181940442e-05 0 7.7861029138056848e-06 8.2922267645550691e-05 0 4.4661359382746987e-06 0.00010495309662039728 0 -7.6893234979267161e-06 8.8627808181940442e-05 0 -7.1427391415733767e-06 6.4214481799024659e-05 0 7.7861029138056848e-06 8.2922267645550691e-05 0 -7.1427391415733767e-06 6.4214481799024659e-05 0 9.034450283715669e-06 5.6762910541405326e-05 0 7.7861029138056848e-06 8.2922267645550691e-05 0 -1.7496848612571808e-05 7.5887541117494563e-05 0 -7.6893234979267161e-06 8.8627808181940442e-05 0 -7.1427391415733767e-06 6.4214481799024659e-05 0 -1.4865451933505412e-05 4.3635885670324885e-05 0 -1.9683309180748557e-05 6.1741066985475899e-05 0 -7.1427391415733767e-06 6.4214481799024659e-05 0 -1.4865451933505412e-05 4.3635885670324885e-05 0 -7.1427391415733767e-06 6.4214481799024659e-05 0 -1.3639160587014627e-06 4.1776820209565442e-05 0 -7.1427391415733767e-06 6.4214481799024659e-05 0 -1.3639160587014627e-06 4.1776820209565442e-05 0 9.034450283715669e-06 5.6762910541405326e-05 0 -1.3639160587014627e-06 4.1776820209565442e-05 0 9.034450283715669e-06 5.6762910541405326e-05 0 8.3884334806423859e-06 3.8695198732521082e-05 0 9.034450283715669e-06 5.6762910541405326e-05 0 8.3884334806423859e-06 3.8695198732521082e-05 0 1.73135064542888e-05 3.4512822001188807e-05 0 2.4998391466786765e-05 5.7742873581430173e-05 0 9.034450283715669e-06 5.6762910541405326e-05 0 1.73135064542888e-05 3.4512822001188807e-05 0 2.4998391466786765e-05 5.7742873581430173e-05 0 9.034450283715669e-06 5.6762910541405326e-05 0 2.4287764688120194e-05 7.923232041213365e-05 0 9.034450283715669e-06 5.6762910541405326e-05 0 7.7861029138056848e-06 8.2922267645550691e-05 0 2.4287764688120194e-05 7.923232041213365e-05 0 7.7861029138056848e-06 8.2922267645550691e-05 0 2.4287764688120194e-05 7.923232041213365e-05 0 2.4098783535338044e-05 0.00010355298359489181 0 3.8573343265237346e-05 9.6361737046865293e-05 0 2.4287764688120194e-05 7.923232041213365e-05 0 2.4098783535338044e-05 0.00010355298359489181 0 7.7861029138056848e-06 8.2922267645550691e-05 0 2.4098783535338044e-05 0.00010355298359489181 0 4.4661359382746987e-06 0.00010495309662039728 0 2.4098783535338044e-05 0.00010355298359489181 0 1.6849858351391369e-05 0.00011866896377366631 0 4.4661359382746987e-06 0.00010495309662039728 0 2.4098783535338044e-05 0.00010355298359489181 0 1.6849858351391369e-05 0.00011866896377366631 0 3.5583906656765515e-05 0.00012347969569551507 0 4.2293757860849011e-05 0.00011082337775540101 0 2.4098783535338044e-05 0.00010355298359489181 0 3.5583906656765515e-05 0.00012347969569551507 0 4.3518555928174757e-05 0.00013804805205738105 0 3.5583906656765515e-05 0.00012347969569551507 0 2.1074855204710839e-05 0.00013909628064286947 0 4.3518555928174757e-05 0.00013804805205738105 0 2.1074855204710839e-05 0.00013909628064286947 0 4.0211282617028621e-05 0.00015322745692810137 0 1.6849858351391369e-05 0.00011866896377366631 0 3.5583906656765515e-05 0.00012347969569551507 0 2.1074855204710839e-05 0.00013909628064286947 0 1.6849858351391369e-05 0.00011866896377366631 0 2.1074855204710839e-05 0.00013909628064286947 0 -5.2358668094175105e-07 0.00012200890855487423 0 2.1074855204710839e-05 0.00013909628064286947 0 -2.5778665397718585e-06 0.00014140557762582043 0 -5.2358668094175105e-07 0.00012200890855487423 0 2.1074855204710839e-05 0.00013909628064286947 0 -2.5778665397718585e-06 0.00014140557762582043 0 3.6224328218079371e-06 0.00015977487101617388 0 -2.5778665397718585e-06 0.00014140557762582043 0 -5.2358668094175105e-07 0.00012200890855487423 0 -1.874307099009147e-05 0.00014005051677223204 0 -5.2358668094175105e-07 0.00012200890855487423 0 -1.4688065353738194e-05 0.00011192870164247902 0 -1.874307099009147e-05 0.00014005051677223204 0 -5.2358668094175105e-07 0.00012200890855487423 0 4.4661359382746987e-06 0.00010495309662039728 0 -1.4688065353738194e-05 0.00011192870164247902 0 1.6849858351391369e-05 0.00011866896377366631 0 -5.2358668094175105e-07 0.00012200890855487423 0 4.4661359382746987e-06 0.00010495309662039728 0 -7.6893234979267161e-06 8.8627808181940442e-05 0 4.4661359382746987e-06 0.00010495309662039728 0 -1.4688065353738194e-05 0.00011192870164247902 0 -2.3432715942829715e-05 9.1873677890389797e-05 0 -7.6893234979267161e-06 8.8627808181940442e-05 0 -1.4688065353738194e-05 0.00011192870164247902 0 -2.3432715942829715e-05 9.1873677890389797e-05 0 -3.0713568556801136e-05 0.00010846464576716169 0 -1.4688065353738194e-05 0.00011192870164247902 0 -4.1403187661364404e-05 9.3848775783618348e-05 0 -2.3432715942829715e-05 9.1873677890389797e-05 0 -3.0713568556801136e-05 0.00010846464576716169 0 -3.0713568556801136e-05 0.00010846464576716169 0 -3.0219051265246341e-05 0.00012421054598233308 0 -4.5616071660543769e-05 0.00012044310744222107 0 -3.0713568556801136e-05 0.00010846464576716169 0 -1.4688065353738194e-05 0.00011192870164247902 0 -3.0219051265246341e-05 0.00012421054598233308 0 -1.4688065353738194e-05 0.00011192870164247902 0 -1.874307099009147e-05 0.00014005051677223204 0 -3.0219051265246341e-05 0.00012421054598233308 0 -2.5778665397718585e-06 0.00014140557762582043 0 -1.874307099009147e-05 0.00014005051677223204 0 -1.5574010330803176e-05 0.00016020479231816122 0 -1.874307099009147e-05 0.00014005051677223204 0 -4.2060685543748566e-05 0.00014073461037735448 0 -3.0807001807443225e-05 0.00015521185855469781 0 -1.874307099009147e-05 0.00014005051677223204 0 -3.0219051265246341e-05 0.00012421054598233308 0 -4.2060685543748566e-05 0.00014073461037735448 0 -3.0219051265246341e-05 0.00012421054598233308 0 -4.2060685543748566e-05 0.00014073461037735448 0 -4.5616071660543769e-05 0.00012044310744222107 0 -4.2060685543748566e-05 0.00014073461037735448 0 -6.3590530084100657e-05 0.00013030620014127083 0 -6.4359180508769673e-05 0.00015294774047872452 0 -4.2060685543748566e-05 0.00014073461037735448 0 -6.4359180508769673e-05 0.00015294774047872452 0 -4.6260396969788524e-05 0.00016186962622519716 0 -4.2060685543748566e-05 0.00014073461037735448 0 -6.3590530084100657e-05 0.00013030620014127083 0 -4.5616071660543769e-05 0.00012044310744222107 0 -6.3590530084100657e-05 0.00013030620014127083 0 -4.5616071660543769e-05 0.00012044310744222107 0 -6.1883104406014098e-05 0.00010796898244465566 0 -4.1403187661364404e-05 9.3848775783618348e-05 0 -3.0713568556801136e-05 0.00010846464576716169 0 -4.5616071660543769e-05 0.00012044310744222107 0 -4.1403187661364404e-05 9.3848775783618348e-05 0 -4.5616071660543769e-05 0.00012044310744222107 0 -6.1883104406014098e-05 0.00010796898244465566 0 -6.4753015087322974e-05 0.00019904189349331577 0 -3.5039895583054027e-05 0.00019915383731792919 0 -4.2965828166249919e-05 0.00022159213929906488 0 -6.4753015087322974e-05 0.00019904189349331577 0 -4.7940504389005672e-05 0.00018227203759896765 0 -3.5039895583054027e-05 0.00019915383731792919 0 -4.7940504389005672e-05 0.00018227203759896765 0 -3.167949033167137e-05 0.00017349969781880499 0 -3.5039895583054027e-05 0.00019915383731792919 0 -6.4753015087322974e-05 0.00019904189349331577 0 -4.7940504389005672e-05 0.00018227203759896765 0 -6.4710372471403054e-05 0.00017584918075241353 0 -4.7940504389005672e-05 0.00018227203759896765 0 -6.4710372471403054e-05 0.00017584918075241353 0 -4.6260396969788524e-05 0.00016186962622519716 0 -6.4710372471403054e-05 0.00017584918075241353 0 -6.4359180508769673e-05 0.00015294774047872452 0 -4.6260396969788524e-05 0.00016186962622519716 0 -4.2060685543748566e-05 0.00014073461037735448 0 -4.6260396969788524e-05 0.00016186962622519716 0 -3.0807001807443225e-05 0.00015521185855469781 0 -4.7940504389005672e-05 0.00018227203759896765 0 -4.6260396969788524e-05 0.00016186962622519716 0 -3.167949033167137e-05 0.00017349969781880499 0 -3.167949033167137e-05 0.00017349969781880499 0 -3.0807001807443225e-05 0.00015521185855469781 0 -1.5574010330803176e-05 0.00016020479231816122 0 -4.6260396969788524e-05 0.00016186962622519716 0 -3.167949033167137e-05 0.00017349969781880499 0 -3.0807001807443225e-05 0.00015521185855469781 0 -1.874307099009147e-05 0.00014005051677223204 0 -3.0807001807443225e-05 0.00015521185855469781 0 -1.5574010330803176e-05 0.00016020479231816122 0 -3.167949033167137e-05 0.00017349969781880499 0 -1.5574010330803176e-05 0.00016020479231816122 0 -1.4342641427330285e-05 0.00017991097030308316 0 -1.4342641427330285e-05 0.00017991097030308316 0 -3.5039895583054027e-05 0.00019915383731792919 0 -1.1907741083545983e-05 0.00020052541395841676 0 -3.167949033167137e-05 0.00017349969781880499 0 -1.4342641427330285e-05 0.00017991097030308316 0 -3.5039895583054027e-05 0.00019915383731792919 0 -3.5039895583054027e-05 0.00019915383731792919 0 -1.1907741083545983e-05 0.00020052541395841676 0 -1.9670719606816162e-05 0.00022337969406716231 0 -1.1907741083545983e-05 0.00020052541395841676 0 3.0130134674644545e-06 0.00018654512700355273 0 6.2071772700603921e-06 0.00021138521981061654 0 3.0130134674644545e-06 0.00018654512700355273 0 2.2325371304563756e-05 0.00019484496363384625 0 6.2071772700603921e-06 0.00021138521981061654 0 3.0130134674644545e-06 0.00018654512700355273 0 1.6667209988821245e-05 0.00017368114397826553 0 2.2325371304563756e-05 0.00019484496363384625 0 -1.4342641427330285e-05 0.00017991097030308316 0 -1.1907741083545983e-05 0.00020052541395841676 0 3.0130134674644545e-06 0.00018654512700355273 0 -1.5574010330803176e-05 0.00016020479231816122 0 -1.4342641427330285e-05 0.00017991097030308316 0 3.6224328218079371e-06 0.00015977487101617388 0 -1.4342641427330285e-05 0.00017991097030308316 0 3.0130134674644545e-06 0.00018654512700355273 0 3.6224328218079371e-06 0.00015977487101617388 0 -2.5778665397718585e-06 0.00014140557762582043 0 -1.5574010330803176e-05 0.00016020479231816122 0 3.6224328218079371e-06 0.00015977487101617388 0 3.6224328218079371e-06 0.00015977487101617388 0 1.6667209988821245e-05 0.00017368114397826553 0 2.317102300061343e-05 0.00015996787588712377 0 3.0130134674644545e-06 0.00018654512700355273 0 3.6224328218079371e-06 0.00015977487101617388 0 1.6667209988821245e-05 0.00017368114397826553 0 1.6667209988821245e-05 0.00017368114397826553 0 2.317102300061343e-05 0.00015996787588712377 0 3.4344831222984522e-05 0.00017324271232011239 0 2.1074855204710839e-05 0.00013909628064286947 0 2.317102300061343e-05 0.00015996787588712377 0 4.0211282617028621e-05 0.00015322745692810137 0 2.1074855204710839e-05 0.00013909628064286947 0 3.6224328218079371e-06 0.00015977487101617388 0 2.317102300061343e-05 0.00015996787588712377 0 2.317102300061343e-05 0.00015996787588712377 0 4.0211282617028621e-05 0.00015322745692810137 0 3.4344831222984522e-05 0.00017324271232011239 0 4.0211282617028621e-05 0.00015322745692810137 0 3.4344831222984522e-05 0.00017324271232011239 0 5.1053712335989125e-05 0.00016441175040505913 0 3.4344831222984522e-05 0.00017324271232011239 0 2.2325371304563756e-05 0.00019484496363384625 0 4.389165548496135e-05 0.00019646404179121684 0 3.4344831222984522e-05 0.00017324271232011239 0 4.389165548496135e-05 0.00019646404179121684 0 5.200684855058714e-05 0.00017900295523818891 0 1.6667209988821245e-05 0.00017368114397826553 0 3.4344831222984522e-05 0.00017324271232011239 0 2.2325371304563756e-05 0.00019484496363384625 0 2.2325371304563756e-05 0.00019484496363384625 0 4.389165548496135e-05 0.00019646404179121684 0 3.0738758457433126e-05 0.00021996641871271528 0 4.389165548496135e-05 0.00019646404179121684 0 3.0738758457433126e-05 0.00021996641871271528 0 5.3480642196601306e-05 0.00021590976450788031 0 3.0738758457433126e-05 0.00021996641871271528 0 5.172297720163728e-05 0.00023683370383412359 0 2.9384665806008124e-05 0.00024417262757323971 0 3.0738758457433126e-05 0.00021996641871271528 0 5.172297720163728e-05 0.00023683370383412359 0 5.3480642196601306e-05 0.00021590976450788031 0 5.172297720163728e-05 0.00023683370383412359 0 4.4648784672416185e-05 0.00025241659474340241 0 2.9384665806008124e-05 0.00024417262757323971 0 5.172297720163728e-05 0.00023683370383412359 0 4.4648784672416185e-05 0.00025241659474340241 0 6.4441662318975599e-05 0.00024807542580968103 0 4.4648784672416185e-05 0.00025241659474340241 0 6.4441662318975599e-05 0.00024807542580968103 0 5.8713071759153272e-05 0.00026314434926955987 0 4.4648784672416185e-05 0.00025241659474340241 0 3.3708631222499586e-05 0.00026643421173098443 0 5.8713071759153272e-05 0.00026314434926955987 0 4.4648784672416185e-05 0.00025241659474340241 0 3.3708631222499586e-05 0.00026643421173098443 0 2.9384665806008124e-05 0.00024417262757323971 0 8.8340933290561859e-06 0.00026829022531692578 0 6.6965369301401595e-06 0.0002376927824514126 0 -1.4711517420548954e-05 0.00024694938605395117 0 2.9384665806008124e-05 0.00024417262757323971 0 8.8340933290561859e-06 0.00026829022531692578 0 6.6965369301401595e-06 0.0002376927824514126 0 3.3708631222499586e-05 0.00026643421173098443 0 2.9384665806008124e-05 0.00024417262757323971 0 8.8340933290561859e-06 0.00026829022531692578 0 6.6965369301401595e-06 0.0002376927824514126 0 6.2071772700603921e-06 0.00021138521981061654 0 -1.9670719606816162e-05 0.00022337969406716231 0 3.0738758457433126e-05 0.00021996641871271528 0 2.9384665806008124e-05 0.00024417262757323971 0 6.6965369301401595e-06 0.0002376927824514126 0 3.0738758457433126e-05 0.00021996641871271528 0 6.6965369301401595e-06 0.0002376927824514126 0 6.2071772700603921e-06 0.00021138521981061654 0 2.2325371304563756e-05 0.00019484496363384625 0 3.0738758457433126e-05 0.00021996641871271528 0 6.2071772700603921e-06 0.00021138521981061654 0 -1.1907741083545983e-05 0.00020052541395841676 0 6.2071772700603921e-06 0.00021138521981061654 0 -1.9670719606816162e-05 0.00022337969406716231 0 -3.5039895583054027e-05 0.00019915383731792919 0 -1.9670719606816162e-05 0.00022337969406716231 0 -4.2965828166249919e-05 0.00022159213929906488 0 -1.9670719606816162e-05 0.00022337969406716231 0 -1.4711517420548954e-05 0.00024694938605395117 0 -3.7761793116409855e-05 0.00024288529380504375 0 -1.9670719606816162e-05 0.00022337969406716231 0 -3.7761793116409855e-05 0.00024288529380504375 0 -4.2965828166249919e-05 0.00022159213929906488 0 6.6965369301401595e-06 0.0002376927824514126 0 -1.9670719606816162e-05 0.00022337969406716231 0 -1.4711517420548954e-05 0.00024694938605395117 0 8.8340933290561859e-06 0.00026829022531692578 0 -1.4711517420548954e-05 0.00024694938605395117 0 -1.5687140355713746e-05 0.00026934161392796839 0 -1.5687140355713746e-05 0.00026934161392796839 0 -2.8265252051607285e-05 0.00025722194385448922 0 -3.9935245899844543e-05 0.0002698590450788455 0 -1.4711517420548954e-05 0.00024694938605395117 0 -1.5687140355713746e-05 0.00026934161392796839 0 -2.8265252051607285e-05 0.00025722194385448922 0 -1.4711517420548954e-05 0.00024694938605395117 0 -2.8265252051607285e-05 0.00025722194385448922 0 -3.7761793116409855e-05 0.00024288529380504375 0 -2.8265252051607285e-05 0.00025722194385448922 0 -3.7761793116409855e-05 0.00024288529380504375 0 -4.8216126979384107e-05 0.00025637829182722751 0 -2.8265252051607285e-05 0.00025722194385448922 0 -4.8216126979384107e-05 0.00025637829182722751 0 -3.9935245899844543e-05 0.0002698590450788455 0 -4.8216126979384107e-05 0.00025637829182722751 0 -3.9935245899844543e-05 0.0002698590450788455 0 -6.3886291066269046e-05 0.00027027332526228197 0 -4.8216126979384107e-05 0.00025637829182722751 0 -6.3886291066269046e-05 0.00027027332526228197 0 -6.427650907274867e-05 0.00024631668453344328 0 -3.7761793116409855e-05 0.00024288529380504375 0 -4.8216126979384107e-05 0.00025637829182722751 0 -6.427650907274867e-05 0.00024631668453344328 0 -6.427650907274867e-05 0.00024631668453344328 0 -4.2965828166249919e-05 0.00022159213929906488 0 -6.458178366668944e-05 0.00022260450652826603 0 -3.7761793116409855e-05 0.00024288529380504375 0 -6.427650907274867e-05 0.00024631668453344328 0 -4.2965828166249919e-05 0.00022159213929906488 0 -6.4753015087322974e-05 0.00019904189349331577 0 -4.2965828166249919e-05 0.00022159213929906488 0 -6.458178366668944e-05 0.00022260450652826603 0 3.5177985194971128e-05 -2.9735690611133529e-05 0 3.612567226841939e-05 -3.2456016100089499e-05 0 3.2352595244383797e-05 -3.0981832790144855e-05 0 3.5177985194971128e-05 -2.9735690611133529e-05 0 3.9680201068938625e-05 -3.1266188234797773e-05 0 3.9179710130408177e-05 -2.9185082810423655e-05 0 3.5177985194971128e-05 -2.9735690611133529e-05 0 3.6718071150265052e-05 -2.806488881462442e-05 0 3.9179710130408177e-05 -2.9185082810423655e-05 0 3.5177985194971128e-05 -2.9735690611133529e-05 0 3.9680201068938625e-05 -3.1266188234797773e-05 0 3.612567226841939e-05 -3.2456016100089499e-05 0 3.612567226841939e-05 -3.2456016100089499e-05 0 3.1954991831182024e-05 -3.3312745356615813e-05 0 3.2352595244383797e-05 -3.0981832790144855e-05 0 3.1954991831182024e-05 -3.3312745356615813e-05 0 2.8779047874710737e-05 -3.0648870627449815e-05 0 3.2352595244383797e-05 -3.0981832790144855e-05 0 3.1954991831182024e-05 -3.3312745356615813e-05 0 2.8779047874710737e-05 -3.0648870627449815e-05 0 2.8585024832222895e-05 -3.2539178485244842e-05 0 2.8779047874710737e-05 -3.0648870627449815e-05 0 3.2352595244383797e-05 -3.0981832790144855e-05 0 2.8998101838836259e-05 -2.8282058364472883e-05 0 2.8779047874710737e-05 -3.0648870627449815e-05 0 2.8998101838836259e-05 -2.8282058364472883e-05 0 2.6084210354185208e-05 -2.8735105541918174e-05 0 2.8998101838836259e-05 -2.8282058364472883e-05 0 2.6084210354185208e-05 -2.8735105541918174e-05 0 2.3570714168792754e-05 -2.6250501969394129e-05 0 2.8759762164714655e-05 -2.5252558788191399e-05 0 2.8998101838836259e-05 -2.8282058364472883e-05 0 3.2745551645376317e-05 -2.7896197716586439e-05 0 3.5177985194971128e-05 -2.9735690611133529e-05 0 2.8998101838836259e-05 -2.8282058364472883e-05 0 3.2745551645376317e-05 -2.7896197716586439e-05 0 3.5177985194971128e-05 -2.9735690611133529e-05 0 3.2352595244383797e-05 -3.0981832790144855e-05 0 2.8998101838836259e-05 -2.8282058364472883e-05 0 3.5177985194971128e-05 -2.9735690611133529e-05 0 3.2745551645376317e-05 -2.7896197716586439e-05 0 3.6718071150265052e-05 -2.806488881462442e-05 0 3.396493453283581e-05 -2.6286816718908973e-05 0 3.2745551645376317e-05 -2.7896197716586439e-05 0 3.6718071150265052e-05 -2.806488881462442e-05 0 3.396493453283581e-05 -2.6286816718908973e-05 0 3.7799561389307533e-05 -2.5736843536586124e-05 0 3.6718071150265052e-05 -2.806488881462442e-05 0 3.8214041517668017e-05 -2.3001135758976654e-05 0 3.550718078249423e-05 -2.3897769983982161e-05 0 3.7799561389307533e-05 -2.5736843536586124e-05 0 3.7799561389307533e-05 -2.5736843536586124e-05 0 4.0787944397280153e-05 -2.4176222207705619e-05 0 4.0785443340956303e-05 -2.6931365506474144e-05 0 3.7799561389307533e-05 -2.5736843536586124e-05 0 3.6718071150265052e-05 -2.806488881462442e-05 0 4.0785443340956303e-05 -2.6931365506474144e-05 0 6.2339798809823844e-05 0.00014712783407798169 0 4.0211282617028621e-05 0.00015322745692810137 0 5.1053712335989125e-05 0.00016441175040505913 0 6.2339798809823844e-05 0.00014712783407798169 0 6.5900394277853018e-05 0.00016855450048230283 0 5.1053712335989125e-05 0.00016441175040505913 0 3.8214041517668017e-05 -2.3001135758976654e-05 0 3.7799561389307533e-05 -2.5736843536586124e-05 0 4.0787944397280153e-05 -2.4176222207705619e-05 0 5.0424145959227842e-05 6.2057526162237172e-05 0 5.3547999877462078e-05 7.2254537380769227e-05 0 3.4344831222984522e-05 0.00017324271232011239 0 5.1053712335989125e-05 0.00016441175040505913 0 5.200684855058714e-05 0.00017900295523818891 0 6.5900394277853018e-05 0.00016855450048230283 0 5.1053712335989125e-05 0.00016441175040505913 0 5.200684855058714e-05 0.00017900295523818891 0 4.389165548496135e-05 0.00019646404179121684 0 5.200684855058714e-05 0.00017900295523818891 0 6.9667140568072477e-05 0.00019032961460321504 0 5.3547999877462078e-05 7.2254537380769227e-05 0 5.6587602839970487e-05 8.2386200734294821e-05 0 4.0787944397280153e-05 -2.4176222207705619e-05 0 4.4048979917193425e-05 -2.5282550130395255e-05 0 4.0785443340956303e-05 -2.6931365506474144e-05 0 6.5900394277853018e-05 0.00016855450048230283 0 5.200684855058714e-05 0.00017900295523818891 0 6.9667140568072477e-05 0.00019032961460321504 0 5.6587602839970487e-05 8.2386200734294821e-05 0 6.2243812934597832e-05 9.2984831105462679e-05 0 4.389165548496135e-05 0.00019646404179121684 0 6.9667140568072477e-05 0.00019032961460321504 0 5.3480642196601306e-05 0.00021590976450788031 0 3.6718071150265052e-05 -2.806488881462442e-05 0 3.9179710130408177e-05 -2.9185082810423655e-05 0 4.0785443340956303e-05 -2.6931365506474144e-05 0 4.4048979917193425e-05 -2.5282550130395255e-05 0 4.0785443340956303e-05 -2.6931365506474144e-05 0 4.3572050009886405e-05 -2.9248875239164756e-05 0 3.9680201068938625e-05 -3.1266188234797773e-05 0 3.9179710130408177e-05 -2.9185082810423655e-05 0 4.3572050009886405e-05 -2.9248875239164756e-05 0 3.9179710130408177e-05 -2.9185082810423655e-05 0 4.0785443340956303e-05 -2.6931365506474144e-05 0 4.3572050009886405e-05 -2.9248875239164756e-05 0 4.3572050009886405e-05 -2.9248875239164756e-05 0 4.758174911264599e-05 -3.0410046299090513e-05 0 4.4066193087522494e-05 -3.2627968550115298e-05 0 3.9680201068938625e-05 -3.1266188234797773e-05 0 4.3572050009886405e-05 -2.9248875239164756e-05 0 4.4066193087522494e-05 -3.2627968550115298e-05 0 4.4048979917193425e-05 -2.5282550130395255e-05 0 4.3572050009886405e-05 -2.9248875239164756e-05 0 4.8064602327722339e-05 -2.6808485562523452e-05 0 4.3572050009886405e-05 -2.9248875239164756e-05 0 4.758174911264599e-05 -3.0410046299090513e-05 0 4.8064602327722339e-05 -2.6808485562523452e-05 0 4.758174911264599e-05 -3.0410046299090513e-05 0 4.4066193087522494e-05 -3.2627968550115298e-05 0 4.9674280076938915e-05 -3.3613825108925559e-05 0 6.9667140568072477e-05 0.00019032961460321504 0 5.3480642196601306e-05 0.00021590976450788031 0 7.3508186920066259e-05 0.00021230432310303263 0 6.2243812934597832e-05 9.2984831105462679e-05 0 6.0296277165972682e-05 0.00010250603937069651 0 4.758174911264599e-05 -3.0410046299090513e-05 0 4.8064602327722339e-05 -2.6808485562523452e-05 0 5.2913568523024888e-05 -2.9336404361755998e-05 0 5.3480642196601306e-05 0.00021590976450788031 0 7.3508186920066259e-05 0.00021230432310303263 0 7.7897824635513442e-05 0.00023493963406094124 0 5.172297720163728e-05 0.00023683370383412359 0 5.3480642196601306e-05 0.00021590976450788031 0 7.7897824635513442e-05 0.00023493963406094124 0 5.172297720163728e-05 0.00023683370383412359 0 7.7897824635513442e-05 0.00023493963406094124 0 6.4441662318975599e-05 0.00024807542580968103 0 6.0296277165972682e-05 0.00010250603937069651 0 9.02262091824343e-05 0.0001123926675254302 0 7.7897824635513442e-05 0.00023493963406094124 0 8.2896154403411661e-05 0.00025831255494662307 0 6.4441662318975599e-05 0.00024807542580968103 0 8.2896154403411661e-05 0.00025831255494662307 0 6.4441662318975599e-05 0.00024807542580968103 0 5.8713071759153272e-05 0.00026314434926955987 0 4.4066193087522494e-05 -3.2627968550115298e-05 0 4.9674280076938915e-05 -3.3613825108925559e-05 0 4.3713887986536637e-05 -3.681726821373741e-05 0 4.758174911264599e-05 -3.0410046299090513e-05 0 5.2913568523024888e-05 -2.9336404361755998e-05 0 4.9674280076938915e-05 -3.3613825108925559e-05 0 5.2913568523024888e-05 -2.9336404361755998e-05 0 5.8029093217474785e-05 -3.3784501554707936e-05 0 4.9674280076938915e-05 -3.3613825108925559e-05 0 5.8029093217474785e-05 -3.3784501554707936e-05 0 4.9674280076938915e-05 -3.3613825108925559e-05 0 5.223138115256501e-05 -3.8203112919306053e-05 0 4.9674280076938915e-05 -3.3613825108925559e-05 0 5.223138115256501e-05 -3.8203112919306053e-05 0 4.3713887986536637e-05 -3.681726821373741e-05 0 4.3713887986536637e-05 -3.681726821373741e-05 0 3.8527757055708655e-05 -3.6357504850183107e-05 0 4.0792442007754981e-05 -4.1391761194932346e-05 0 5.223138115256501e-05 -3.8203112919306053e-05 0 4.6356201576283031e-05 -4.0654455855576723e-05 0 4.3713887986536637e-05 -3.681726821373741e-05 0 4.6356201576283031e-05 -4.0654455855576723e-05 0 4.3713887986536637e-05 -3.681726821373741e-05 0 4.0792442007754981e-05 -4.1391761194932346e-05 0 4.4066193087522494e-05 -3.2627968550115298e-05 0 4.3713887986536637e-05 -3.681726821373741e-05 0 3.970085451354034e-05 -3.4081777114738595e-05 0 4.3713887986536637e-05 -3.681726821373741e-05 0 3.970085451354034e-05 -3.4081777114738595e-05 0 3.8527757055708655e-05 -3.6357504850183107e-05 0 3.612567226841939e-05 -3.2456016100089499e-05 0 3.970085451354034e-05 -3.4081777114738595e-05 0 3.5131641587815441e-05 -3.513205284699369e-05 0 3.9680201068938625e-05 -3.1266188234797773e-05 0 3.612567226841939e-05 -3.2456016100089499e-05 0 3.970085451354034e-05 -3.4081777114738595e-05 0 3.9680201068938625e-05 -3.1266188234797773e-05 0 4.4066193087522494e-05 -3.2627968550115298e-05 0 3.970085451354034e-05 -3.4081777114738595e-05 0 3.1954991831182024e-05 -3.3312745356615813e-05 0 3.5131641587815441e-05 -3.513205284699369e-05 0 3.2455908922105902e-05 -3.6062477770795719e-05 0 3.612567226841939e-05 -3.2456016100089499e-05 0 3.1954991831182024e-05 -3.3312745356615813e-05 0 3.5131641587815441e-05 -3.513205284699369e-05 0 3.5131641587815441e-05 -3.513205284699369e-05 0 3.8527757055708655e-05 -3.6357504850183107e-05 0 3.5799774445634704e-05 -3.8179260429476976e-05 0 3.970085451354034e-05 -3.4081777114738595e-05 0 3.5131641587815441e-05 -3.513205284699369e-05 0 3.8527757055708655e-05 -3.6357504850183107e-05 0 3.5131641587815441e-05 -3.513205284699369e-05 0 3.5799774445634704e-05 -3.8179260429476976e-05 0 3.2455908922105902e-05 -3.6062477770795719e-05 0 3.8527757055708655e-05 -3.6357504850183107e-05 0 3.5799774445634704e-05 -3.8179260429476976e-05 0 4.0792442007754981e-05 -4.1391761194932346e-05 0 3.5799774445634704e-05 -3.8179260429476976e-05 0 4.0792442007754981e-05 -4.1391761194932346e-05 0 3.6524321811056208e-05 -4.1087196464252285e-05 0 3.5799774445634704e-05 -3.8179260429476976e-05 0 3.6524321811056208e-05 -4.1087196464252285e-05 0 3.3471325852376967e-05 -3.8639854140472232e-05 0 3.6524321811056208e-05 -4.1087196464252285e-05 0 3.3621019885874091e-05 -4.0312179787517843e-05 0 3.3471325852376967e-05 -3.8639854140472232e-05 0 3.3621019885874091e-05 -4.0312179787517843e-05 0 3.0163157492628503e-05 -3.7636052456575369e-05 0 3.3471325852376967e-05 -3.8639854140472232e-05 0 3.0163157492628503e-05 -3.7636052456575369e-05 0 3.3471325852376967e-05 -3.8639854140472232e-05 0 3.2455908922105902e-05 -3.6062477770795719e-05 0 3.5799774445634704e-05 -3.8179260429476976e-05 0 3.3471325852376967e-05 -3.8639854140472232e-05 0 3.2455908922105902e-05 -3.6062477770795719e-05 0 3.2500660728901595e-05 -3.996081508389206e-05 0 2.9600774286784301e-05 -3.8970053872213786e-05 0 3.2295643734990208e-05 -4.0829506949925281e-05 0 3.3621019885874091e-05 -4.0312179787517843e-05 0 3.2500660728901595e-05 -3.996081508389206e-05 0 2.9600774286784301e-05 -3.8970053872213786e-05 0 3.3621019885874091e-05 -4.0312179787517843e-05 0 3.0163157492628503e-05 -3.7636052456575369e-05 0 2.9600774286784301e-05 -3.8970053872213786e-05 0 2.9600774286784301e-05 -3.8970053872213786e-05 0 2.7077696241403061e-05 -3.6578219711075465e-05 0 2.607839625789851e-05 -3.8229998789902905e-05 0 3.0163157492628503e-05 -3.7636052456575369e-05 0 2.9600774286784301e-05 -3.8970053872213786e-05 0 2.7077696241403061e-05 -3.6578219711075465e-05 0 2.7077696241403061e-05 -3.6578219711075465e-05 0 2.8669645820544005e-05 -3.4853811113047143e-05 0 2.5482144791137323e-05 -3.422417302676703e-05 0 2.7077696241403061e-05 -3.6578219711075465e-05 0 2.5482144791137323e-05 -3.422417302676703e-05 0 2.3699332272268776e-05 -3.5302045670299751e-05 0 2.7077696241403061e-05 -3.6578219711075465e-05 0 2.3699332272268776e-05 -3.5302045670299751e-05 0 2.607839625789851e-05 -3.8229998789902905e-05 0 3.0163157492628503e-05 -3.7636052456575369e-05 0 3.2455908922105902e-05 -3.6062477770795719e-05 0 2.8669645820544005e-05 -3.4853811113047143e-05 0 3.0163157492628503e-05 -3.7636052456575369e-05 0 2.7077696241403061e-05 -3.6578219711075465e-05 0 2.8669645820544005e-05 -3.4853811113047143e-05 0 3.1954991831182024e-05 -3.3312745356615813e-05 0 3.2455908922105902e-05 -3.6062477770795719e-05 0 2.8669645820544005e-05 -3.4853811113047143e-05 0 3.1954991831182024e-05 -3.3312745356615813e-05 0 2.8669645820544005e-05 -3.4853811113047143e-05 0 2.8585024832222895e-05 -3.2539178485244842e-05 0 2.8779047874710737e-05 -3.0648870627449815e-05 0 2.8585024832222895e-05 -3.2539178485244842e-05 0 2.6160457286339234e-05 -3.0836461204648603e-05 0 2.8585024832222895e-05 -3.2539178485244842e-05 0 2.6160457286339234e-05 -3.0836461204648603e-05 0 2.6518201508689711e-05 -3.2986403758569668e-05 0 2.6160457286339234e-05 -3.0836461204648603e-05 0 2.6518201508689711e-05 -3.2986403758569668e-05 0 2.3995676527692008e-05 -3.1483728017101197e-05 0 2.8669645820544005e-05 -3.4853811113047143e-05 0 2.8585024832222895e-05 -3.2539178485244842e-05 0 2.6518201508689711e-05 -3.2986403758569668e-05 0 2.6518201508689711e-05 -3.2986403758569668e-05 0 2.5482144791137323e-05 -3.422417302676703e-05 0 2.3995676527692008e-05 -3.1483728017101197e-05 0 2.8669645820544005e-05 -3.4853811113047143e-05 0 2.6518201508689711e-05 -3.2986403758569668e-05 0 2.5482144791137323e-05 -3.422417302676703e-05 0 2.5482144791137323e-05 -3.422417302676703e-05 0 2.3699332272268776e-05 -3.5302045670299751e-05 0 2.1500938959815181e-05 -3.161523337531609e-05 0 2.3699332272268776e-05 -3.5302045670299751e-05 0 2.1500938959815181e-05 -3.161523337531609e-05 0 2.0977501569703216e-05 -3.3872529556277827e-05 0 2.5482144791137323e-05 -3.422417302676703e-05 0 2.1500938959815181e-05 -3.161523337531609e-05 0 2.3995676527692008e-05 -3.1483728017101197e-05 0 2.3995676527692008e-05 -3.1483728017101197e-05 0 2.000321811955941e-05 -2.8830215570226207e-05 0 2.3337134135907975e-05 -2.8862562515417678e-05 0 2.1500938959815181e-05 -3.161523337531609e-05 0 2.3995676527692008e-05 -3.1483728017101197e-05 0 2.000321811955941e-05 -2.8830215570226207e-05 0 2.1500938959815181e-05 -3.161523337531609e-05 0 2.000321811955941e-05 -2.8830215570226207e-05 0 1.7223121572367286e-05 -3.0537487590580612e-05 0 2.000321811955941e-05 -2.8830215570226207e-05 0 2.3337134135907975e-05 -2.8862562515417678e-05 0 2.0763426946505921e-05 -2.5848725306061424e-05 0 2.3337134135907975e-05 -2.8862562515417678e-05 0 2.0763426946505921e-05 -2.5848725306061424e-05 0 2.3570714168792754e-05 -2.6250501969394129e-05 0 2.3337134135907975e-05 -2.8862562515417678e-05 0 2.6084210354185208e-05 -2.8735105541918174e-05 0 2.3570714168792754e-05 -2.6250501969394129e-05 0 2.6160457286339234e-05 -3.0836461204648603e-05 0 2.3337134135907975e-05 -2.8862562515417678e-05 0 2.6084210354185208e-05 -2.8735105541918174e-05 0 2.8779047874710737e-05 -3.0648870627449815e-05 0 2.6160457286339234e-05 -3.0836461204648603e-05 0 2.6084210354185208e-05 -2.8735105541918174e-05 0 2.6160457286339234e-05 -3.0836461204648603e-05 0 2.3995676527692008e-05 -3.1483728017101197e-05 0 2.3337134135907975e-05 -2.8862562515417678e-05 0 3.3056366353218815e-05 -0.00010149927644508104 0 2.0063006550585453e-05 -9.4144837209841762e-05 0 2.3418277986573009e-05 -0.00010768873207740239 0 2.410387329492104e-05 -6.7680277576517804e-05 0 2.1280279522679687e-05 -5.8150073103254858e-05 0 3.3056366353218815e-05 -0.00010149927644508104 0 2.0063006550585453e-05 -9.4144837209841762e-05 0 3.0056850914475452e-05 -8.6578480817985534e-05 0 1.5283244297774453e-05 -3.3880156313267615e-05 0 1.7223121572367286e-05 -3.0537487590580612e-05 0 1.2652837572172441e-05 -2.9703996929108574e-05 0 1.7223121572367286e-05 -3.0537487590580612e-05 0 1.4215392912559193e-05 -2.6817220012825572e-05 0 1.2652837572172441e-05 -2.9703996929108574e-05 0 2.000321811955941e-05 -2.8830215570226207e-05 0 1.7223121572367286e-05 -3.0537487590580612e-05 0 1.6993128573295048e-05 -2.7372001978148976e-05 0 1.7223121572367286e-05 -3.0537487590580612e-05 0 1.6993128573295048e-05 -2.7372001978148976e-05 0 1.4215392912559193e-05 -2.6817220012825572e-05 0 2.1500938959815181e-05 -3.161523337531609e-05 0 1.7223121572367286e-05 -3.0537487590580612e-05 0 2.0977501569703216e-05 -3.3872529556277827e-05 0 1.5283244297774453e-05 -3.3880156313267615e-05 0 1.7223121572367286e-05 -3.0537487590580612e-05 0 1.8478861967538207e-05 -3.4421793480803938e-05 0 1.7223121572367286e-05 -3.0537487590580612e-05 0 1.8478861967538207e-05 -3.4421793480803938e-05 0 2.0977501569703216e-05 -3.3872529556277827e-05 0 1.8478861967538207e-05 -3.4421793480803938e-05 0 2.0977501569703216e-05 -3.3872529556277827e-05 0 2.2113014645001723e-05 -3.719242565375689e-05 0 2.3699332272268776e-05 -3.5302045670299751e-05 0 2.0977501569703216e-05 -3.3872529556277827e-05 0 2.2113014645001723e-05 -3.719242565375689e-05 0 1.8478861967538207e-05 -3.4421793480803938e-05 0 2.2113014645001723e-05 -3.719242565375689e-05 0 1.8528632386035589e-05 -3.7662557980203823e-05 0 2.2113014645001723e-05 -3.719242565375689e-05 0 1.8528632386035589e-05 -3.7662557980203823e-05 0 2.2499932772006206e-05 -4.0802324105457031e-05 0 3.6259524587867204e-05 -0.00011710075271370475 0 2.3418277986573009e-05 -0.00010768873207740239 0 1.7295499653209445e-05 -0.00012056610910497509 0 3.6259524587867204e-05 -0.00011710075271370475 0 2.5478021368595528e-05 -0.00013547793481914695 0 1.7295499653209445e-05 -0.00012056610910497509 0 2.7148020969016208e-05 -7.7420034428819483e-05 0 3.1433696562917239e-05 -8.7086566571381038e-05 0 1.5283244297774453e-05 -3.3880156313267615e-05 0 1.8478861967538207e-05 -3.4421793480803938e-05 0 1.8528632386035589e-05 -3.7662557980203823e-05 0 3.3056366353218815e-05 -0.00010149927644508104 0 3.6259524587867204e-05 -0.00011710075271370475 0 2.3418277986573009e-05 -0.00010768873207740239 0 2.410387329492104e-05 -6.7680277576517804e-05 0 2.7148020969016208e-05 -7.7420034428819483e-05 0 3.6259524587867204e-05 -0.00011710075271370475 0 2.5478021368595528e-05 -0.00013547793481914695 0 3.9821709018262461e-05 -0.00013322792052199446 0 3.1433696562917239e-05 -8.7086566571381038e-05 0 3.3810480085461623e-05 -9.6109231117397543e-05 0 2.2499932772006206e-05 -4.0802324105457031e-05 0 2.5188577784662901e-05 -3.9935300535511763e-05 0 2.7372220863054752e-05 -4.2916692904654525e-05 0 2.5478021368595528e-05 -0.00013547793481914695 0 3.9821709018262461e-05 -0.00013322792052199446 0 4.3977150134493002e-05 -0.00014993109321809382 0 2.5478021368595528e-05 -0.00013547793481914695 0 4.3977150134493002e-05 -0.00014993109321809382 0 2.5449079075749952e-05 -0.0001511197163461677 0 2.3699332272268776e-05 -3.5302045670299751e-05 0 2.2113014645001723e-05 -3.719242565375689e-05 0 2.607839625789851e-05 -3.8229998789902905e-05 0 2.2113014645001723e-05 -3.719242565375689e-05 0 2.5188577784662901e-05 -3.9935300535511763e-05 0 2.607839625789851e-05 -3.8229998789902905e-05 0 2.2113014645001723e-05 -3.719242565375689e-05 0 2.2499932772006206e-05 -4.0802324105457031e-05 0 2.5188577784662901e-05 -3.9935300535511763e-05 0 2.5188577784662901e-05 -3.9935300535511763e-05 0 2.607839625789851e-05 -3.8229998789902905e-05 0 2.8544970967662914e-05 -4.0591023975856936e-05 0 2.9600774286784301e-05 -3.8970053872213786e-05 0 2.607839625789851e-05 -3.8229998789902905e-05 0 2.8544970967662914e-05 -4.0591023975856936e-05 0 2.5188577784662901e-05 -3.9935300535511763e-05 0 2.8544970967662914e-05 -4.0591023975856936e-05 0 2.7372220863054752e-05 -4.2916692904654525e-05 0 2.8544970967662914e-05 -4.0591023975856936e-05 0 2.7372220863054752e-05 -4.2916692904654525e-05 0 3.2844371395884993e-05 -4.3564322189139874e-05 0 2.8544970967662914e-05 -4.0591023975856936e-05 0 3.2295643734990208e-05 -4.0829506949925281e-05 0 3.2844371395884993e-05 -4.3564322189139874e-05 0 2.9600774286784301e-05 -3.8970053872213786e-05 0 2.8544970967662914e-05 -4.0591023975856936e-05 0 3.2295643734990208e-05 -4.0829506949925281e-05 0 4.3977150134493002e-05 -0.00014993109321809382 0 3.5135811326862499e-05 -0.00015945978896092242 0 2.5449079075749952e-05 -0.0001511197163461677 0 3.3810480085461623e-05 -9.6109231117397543e-05 0 4.6929635770038033e-05 -0.00010566347961492947 0 4.3977150134493002e-05 -0.00014993109321809382 0 4.9368237529634097e-05 -0.00016702370138384654 0 3.5135811326862499e-05 -0.00015945978896092242 0 4.9368237529634097e-05 -0.00016702370138384654 0 3.5135811326862499e-05 -0.00015945978896092242 0 3.1877428408220479e-05 -0.00017026486263588196 0 3.5135811326862499e-05 -0.00015945978896092242 0 2.1193465707849324e-05 -0.00016226965387823429 0 3.1877428408220479e-05 -0.00017026486263588196 0 2.1193465707849324e-05 -0.00016226965387823429 0 3.1877428408220479e-05 -0.00017026486263588196 0 1.3978406872004313e-05 -0.00017204610470393636 0 2.1193465707849324e-05 -0.00016226965387823429 0 2.5449079075749952e-05 -0.0001511197163461677 0 1.0220469242965805e-05 -0.00015615642509408947 0 3.5135811326862499e-05 -0.00015945978896092242 0 2.1193465707849324e-05 -0.00016226965387823429 0 2.5449079075749952e-05 -0.0001511197163461677 0 2.1193465707849324e-05 -0.00016226965387823429 0 1.0220469242965805e-05 -0.00015615642509408947 0 1.3978406872004313e-05 -0.00017204610470393636 0 1.0220469242965805e-05 -0.00015615642509408947 0 -3.3296357848512995e-06 -0.00017284957778355994 0 -5.3687024269061796e-06 -0.00015121194135456537 0 -3.3296357848512995e-06 -0.00017284957778355994 0 -5.3687024269061796e-06 -0.00015121194135456537 0 -1.9733226208640973e-05 -0.00015759013910609295 0 1.0220469242965805e-05 -0.00015615642509408947 0 1.3978406872004313e-05 -0.00017204610470393636 0 -3.3296357848512995e-06 -0.00017284957778355994 0 1.0220469242965805e-05 -0.00015615642509408947 0 -5.3687024269061796e-06 -0.00015121194135456537 0 1.0427704949225407e-05 -0.00013894996089435082 0 -5.3687024269061796e-06 -0.00015121194135456537 0 -7.9748558650005429e-06 -0.0001323148607539392 0 1.0427704949225407e-05 -0.00013894996089435082 0 -5.3687024269061796e-06 -0.00015121194135456537 0 -7.9748558650005429e-06 -0.0001323148607539392 0 -2.3294199309022016e-05 -0.00014039899745011035 0 -7.9748558650005429e-06 -0.0001323148607539392 0 1.0427704949225407e-05 -0.00013894996089435082 0 2.6587243663443216e-06 -0.00012332459288929342 0 2.5478021368595528e-05 -0.00013547793481914695 0 1.0427704949225407e-05 -0.00013894996089435082 0 1.7295499653209445e-05 -0.00012056610910497509 0 2.5478021368595528e-05 -0.00013547793481914695 0 2.5449079075749952e-05 -0.0001511197163461677 0 1.0427704949225407e-05 -0.00013894996089435082 0 2.5449079075749952e-05 -0.0001511197163461677 0 1.0220469242965805e-05 -0.00015615642509408947 0 1.0427704949225407e-05 -0.00013894996089435082 0 -5.389954501185505e-05 -0.00015716145185946248 0 -4.2720239287668331e-05 -0.00016417292570276054 0 -3.5481868987174449e-05 -0.00015465535598494797 0 -5.389954501185505e-05 -0.00015716145185946248 0 -5.3586750827773976e-05 -0.00017391073938361496 0 -4.2720239287668331e-05 -0.00016417292570276054 0 -5.3586750827773976e-05 -0.00017391073938361496 0 -3.6923536656835458e-05 -0.0001735726398596142 0 -4.2720239287668331e-05 -0.00016417292570276054 0 -3.6923536656835458e-05 -0.0001735726398596142 0 -4.2720239287668331e-05 -0.00016417292570276054 0 -2.8915912352561582e-05 -0.00016475818341618782 0 -4.2720239287668331e-05 -0.00016417292570276054 0 -3.5481868987174449e-05 -0.00015465535598494797 0 -2.8915912352561582e-05 -0.00016475818341618782 0 -3.5481868987174449e-05 -0.00015465535598494797 0 -2.8915912352561582e-05 -0.00016475818341618782 0 -1.9733226208640973e-05 -0.00015759013910609295 0 -2.8915912352561582e-05 -0.00016475818341618782 0 -2.0134993367849933e-05 -0.00017330232532303196 0 -1.9733226208640973e-05 -0.00015759013910609295 0 -3.6923536656835458e-05 -0.0001735726398596142 0 -2.8915912352561582e-05 -0.00016475818341618782 0 -2.0134993367849933e-05 -0.00017330232532303196 0 -3.3296357848512995e-06 -0.00017284957778355994 0 -2.0134993367849933e-05 -0.00017330232532303196 0 -1.9733226208640973e-05 -0.00015759013910609295 0 -5.3687024269061796e-06 -0.00015121194135456537 0 -1.9733226208640973e-05 -0.00015759013910609295 0 -2.3294199309022016e-05 -0.00014039899745011035 0 -7.9748558650005429e-06 -0.0001323148607539392 0 -2.3294199309022016e-05 -0.00014039899745011035 0 -2.0236547876062651e-05 -0.0001215779811195883 0 -2.3294199309022016e-05 -0.00014039899745011035 0 -3.9217884698213445e-05 -0.00013992939214830732 0 -3.458521866549681e-05 -0.00012466310219168896 0 -3.5481868987174449e-05 -0.00015465535598494797 0 -1.9733226208640973e-05 -0.00015759013910609295 0 -2.3294199309022016e-05 -0.00014039899745011035 0 -3.5481868987174449e-05 -0.00015465535598494797 0 -2.3294199309022016e-05 -0.00014039899745011035 0 -3.9217884698213445e-05 -0.00013992939214830732 0 -5.389954501185505e-05 -0.00015716145185946248 0 -3.5481868987174449e-05 -0.00015465535598494797 0 -3.9217884698213445e-05 -0.00013992939214830732 0 -3.9217884698213445e-05 -0.00013992939214830732 0 -5.3976972666070645e-05 -0.00014040824716283804 0 -5.3686692908952228e-05 -0.00012365527865097059 0 -5.389954501185505e-05 -0.00015716145185946248 0 -3.9217884698213445e-05 -0.00013992939214830732 0 -5.3976972666070645e-05 -0.00014040824716283804 0 -5.3686692908952228e-05 -0.00012365527865097059 0 -4.1924619122875377e-05 -0.0001129213705296099 0 -5.2856612164592736e-05 -0.00010738259412612798 0 -3.9217884698213445e-05 -0.00013992939214830732 0 -5.3686692908952228e-05 -0.00012365527865097059 0 -3.458521866549681e-05 -0.00012466310219168896 0 -3.458521866549681e-05 -0.00012466310219168896 0 -4.1924619122875377e-05 -0.0001129213705296099 0 -3.0169391692360155e-05 -0.00010699373925970221 0 -5.3686692908952228e-05 -0.00012365527865097059 0 -3.458521866549681e-05 -0.00012466310219168896 0 -4.1924619122875377e-05 -0.0001129213705296099 0 -3.458521866549681e-05 -0.00012466310219168896 0 -2.0236547876062651e-05 -0.0001215779811195883 0 -3.0169391692360155e-05 -0.00010699373925970221 0 -2.3294199309022016e-05 -0.00014039899745011035 0 -3.458521866549681e-05 -0.00012466310219168896 0 -2.0236547876062651e-05 -0.0001215779811195883 0 -2.0236547876062651e-05 -0.0001215779811195883 0 -1.8430362327119701e-05 -0.00010621773791433278 0 -3.0169391692360155e-05 -0.00010699373925970221 0 -2.0236547876062651e-05 -0.0001215779811195883 0 -1.8430362327119701e-05 -0.00010621773791433278 0 -8.4032794153336108e-06 -0.0001143707902690728 0 -1.8430362327119701e-05 -0.00010621773791433278 0 -2.3633390866450831e-05 -9.6214446649146146e-05 0 -3.0169391692360155e-05 -0.00010699373925970221 0 -2.3633390866450831e-05 -9.6214446649146146e-05 0 -1.1135988462530584e-05 -9.6465335597291092e-05 0 -2.1849946423211445e-05 -8.2515756112616818e-05 0 -1.8430362327119701e-05 -0.00010621773791433278 0 -2.3633390866450831e-05 -9.6214446649146146e-05 0 -1.1135988462530584e-05 -9.6465335597291092e-05 0 -2.3633390866450831e-05 -9.6214446649146146e-05 0 -3.0169391692360155e-05 -0.00010699373925970221 0 -3.5768495884025744e-05 -9.1623264602478505e-05 0 -4.1924619122875377e-05 -0.0001129213705296099 0 -3.0169391692360155e-05 -0.00010699373925970221 0 -4.258794618607728e-05 -0.00010178652844230297 0 -3.0169391692360155e-05 -0.00010699373925970221 0 -4.258794618607728e-05 -0.00010178652844230297 0 -3.5768495884025744e-05 -9.1623264602478505e-05 0 -4.258794618607728e-05 -0.00010178652844230297 0 -3.5768495884025744e-05 -9.1623264602478505e-05 0 -5.1385093255768081e-05 -9.1547128603372264e-05 0 -4.258794618607728e-05 -0.00010178652844230297 0 -5.2856612164592736e-05 -0.00010738259412612798 0 -5.1385093255768081e-05 -9.1547128603372264e-05 0 -4.1924619122875377e-05 -0.0001129213705296099 0 -4.258794618607728e-05 -0.00010178652844230297 0 -5.2856612164592736e-05 -0.00010738259412612798 0 2.1283836016001757e-06 -0.00010910834131464677 0 1.7295499653209445e-05 -0.00012056610910497509 0 1.2282310370468589e-05 -0.00010311428707238677 0 2.1283836016001757e-06 -0.00010910834131464677 0 1.7295499653209445e-05 -0.00012056610910497509 0 2.6587243663443216e-06 -0.00012332459288929342 0 2.3418277986573009e-05 -0.00010768873207740239 0 1.7295499653209445e-05 -0.00012056610910497509 0 1.2282310370468589e-05 -0.00010311428707238677 0 1.0427704949225407e-05 -0.00013894996089435082 0 1.7295499653209445e-05 -0.00012056610910497509 0 2.6587243663443216e-06 -0.00012332459288929342 0 -7.9748558650005429e-06 -0.0001323148607539392 0 2.6587243663443216e-06 -0.00012332459288929342 0 -8.4032794153336108e-06 -0.0001143707902690728 0 -7.9748558650005429e-06 -0.0001323148607539392 0 -2.0236547876062651e-05 -0.0001215779811195883 0 -8.4032794153336108e-06 -0.0001143707902690728 0 2.1283836016001757e-06 -0.00010910834131464677 0 2.6587243663443216e-06 -0.00012332459288929342 0 -8.4032794153336108e-06 -0.0001143707902690728 0 2.1283836016001757e-06 -0.00010910834131464677 0 -1.1135988462530584e-05 -9.6465335597291092e-05 0 9.9882895278243362e-07 -9.411872527442958e-05 0 2.1283836016001757e-06 -0.00010910834131464677 0 -8.4032794153336108e-06 -0.0001143707902690728 0 -1.1135988462530584e-05 -9.6465335597291092e-05 0 -1.8430362327119701e-05 -0.00010621773791433278 0 -8.4032794153336108e-06 -0.0001143707902690728 0 -1.1135988462530584e-05 -9.6465335597291092e-05 0 -1.1135988462530584e-05 -9.6465335597291092e-05 0 9.9882895278243362e-07 -9.411872527442958e-05 0 -7.0316729261017178e-06 -8.2275007697271403e-05 0 9.9882895278243362e-07 -9.411872527442958e-05 0 1.2282310370468589e-05 -0.00010311428707238677 0 1.0134458329765189e-05 -9.0671728489635314e-05 0 2.1283836016001757e-06 -0.00010910834131464677 0 9.9882895278243362e-07 -9.411872527442958e-05 0 1.2282310370468589e-05 -0.00010311428707238677 0 2.0063006550585453e-05 -9.4144837209841762e-05 0 2.3418277986573009e-05 -0.00010768873207740239 0 1.2282310370468589e-05 -0.00010311428707238677 0 2.0063006550585453e-05 -9.4144837209841762e-05 0 1.2282310370468589e-05 -0.00010311428707238677 0 1.0134458329765189e-05 -9.0671728489635314e-05 0 2.0063006550585453e-05 -9.4144837209841762e-05 0 1.0134458329765189e-05 -9.0671728489635314e-05 0 1.5399970749112306e-05 -8.0665279080070822e-05 0 1.0134458329765189e-05 -9.0671728489635314e-05 0 1.5399970749112306e-05 -8.0665279080070822e-05 0 2.1616605465014031e-06 -8.1482455014784684e-05 0 1.5399970749112306e-05 -8.0665279080070822e-05 0 7.7566232427194298e-06 -7.1969144408363795e-05 0 2.1616605465014031e-06 -8.1482455014784684e-05 0 1.5399970749112306e-05 -8.0665279080070822e-05 0 7.7566232427194298e-06 -7.1969144408363795e-05 0 1.564015826408998e-05 -6.7276924237219321e-05 0 7.7566232427194298e-06 -7.1969144408363795e-05 0 2.1616605465014031e-06 -8.1482455014784684e-05 0 -9.7203902460205415e-07 -7.0170328662641089e-05 0 9.9882895278243362e-07 -9.411872527442958e-05 0 1.0134458329765189e-05 -9.0671728489635314e-05 0 2.1616605465014031e-06 -8.1482455014784684e-05 0 9.9882895278243362e-07 -9.411872527442958e-05 0 2.1616605465014031e-06 -8.1482455014784684e-05 0 -7.0316729261017178e-06 -8.2275007697271403e-05 0 -1.1135988462530584e-05 -9.6465335597291092e-05 0 -7.0316729261017178e-06 -8.2275007697271403e-05 0 -2.1849946423211445e-05 -8.2515756112616818e-05 0 -7.0316729261017178e-06 -8.2275007697271403e-05 0 -1.1586016696397429e-05 -6.9740457026975882e-05 0 -2.1849946423211445e-05 -8.2515756112616818e-05 0 2.1616605465014031e-06 -8.1482455014784684e-05 0 -7.0316729261017178e-06 -8.2275007697271403e-05 0 -9.7203902460205415e-07 -7.0170328662641089e-05 0 -7.0316729261017178e-06 -8.2275007697271403e-05 0 -1.1586016696397429e-05 -6.9740457026975882e-05 0 -9.7203902460205415e-07 -7.0170328662641089e-05 0 -1.1586016696397429e-05 -6.9740457026975882e-05 0 -2.3022260834321757e-06 -5.69508812541538e-05 0 -9.7203902460205415e-07 -7.0170328662641089e-05 0 -1.1586016696397429e-05 -6.9740457026975882e-05 0 -1.859527393215446e-05 -6.128663052111474e-05 0 -1.0980389351154788e-05 -5.2841544188974676e-05 0 -1.1586016696397429e-05 -6.9740457026975882e-05 0 -2.3022260834321757e-06 -5.69508812541538e-05 0 -1.0980389351154788e-05 -5.2841544188974676e-05 0 -2.3022260834321757e-06 -5.69508812541538e-05 0 6.7274413271024866e-06 -6.0517121628141081e-05 0 5.9467229447662637e-06 -4.5240717740380632e-05 0 6.7274413271024866e-06 -6.0517121628141081e-05 0 5.9467229447662637e-06 -4.5240717740380632e-05 0 1.4346828467838582e-05 -5.2714486539482209e-05 0 7.7566232427194298e-06 -7.1969144408363795e-05 0 6.7274413271024866e-06 -6.0517121628141081e-05 0 1.564015826408998e-05 -6.7276924237219321e-05 0 -2.3022260834321757e-06 -5.69508812541538e-05 0 6.7274413271024866e-06 -6.0517121628141081e-05 0 -9.7203902460205415e-07 -7.0170328662641089e-05 0 7.7566232427194298e-06 -7.1969144408363795e-05 0 6.7274413271024866e-06 -6.0517121628141081e-05 0 -9.7203902460205415e-07 -7.0170328662641089e-05 0 -4.922605386123947e-05 -7.6545702672119011e-05 0 -4.24643241002743e-05 -8.400557600234957e-05 0 -3.3684118642360244e-05 -7.5851381572936201e-05 0 -4.922605386123947e-05 -7.6545702672119011e-05 0 -3.3684118642360244e-05 -7.5851381572936201e-05 0 -3.7800525753789561e-05 -6.5474331179318239e-05 0 -3.5768495884025744e-05 -9.1623264602478505e-05 0 -5.1385093255768081e-05 -9.1547128603372264e-05 0 -4.24643241002743e-05 -8.400557600234957e-05 0 -4.922605386123947e-05 -7.6545702672119011e-05 0 -5.1385093255768081e-05 -9.1547128603372264e-05 0 -4.24643241002743e-05 -8.400557600234957e-05 0 -3.5768495884025744e-05 -9.1623264602478505e-05 0 -4.24643241002743e-05 -8.400557600234957e-05 0 -3.3684118642360244e-05 -7.5851381572936201e-05 0 -3.3684118642360244e-05 -7.5851381572936201e-05 0 -2.1849946423211445e-05 -8.2515756112616818e-05 0 -2.2225196199850222e-05 -7.0119406835938172e-05 0 -3.5768495884025744e-05 -9.1623264602478505e-05 0 -3.3684118642360244e-05 -7.5851381572936201e-05 0 -2.1849946423211445e-05 -8.2515756112616818e-05 0 -2.3633390866450831e-05 -9.6214446649146146e-05 0 -3.5768495884025744e-05 -9.1623264602478505e-05 0 -2.1849946423211445e-05 -8.2515756112616818e-05 0 -1.1586016696397429e-05 -6.9740457026975882e-05 0 -2.1849946423211445e-05 -8.2515756112616818e-05 0 -2.2225196199850222e-05 -7.0119406835938172e-05 0 -2.2225196199850222e-05 -7.0119406835938172e-05 0 -1.859527393215446e-05 -6.128663052111474e-05 0 -2.8125896204673975e-05 -6.2119505074600381e-05 0 -1.1586016696397429e-05 -6.9740457026975882e-05 0 -2.2225196199850222e-05 -7.0119406835938172e-05 0 -1.859527393215446e-05 -6.128663052111474e-05 0 -1.859527393215446e-05 -6.128663052111474e-05 0 -2.036194356383543e-05 -5.2390386433514072e-05 0 -1.0980389351154788e-05 -5.2841544188974676e-05 0 -1.859527393215446e-05 -6.128663052111474e-05 0 -2.8125896204673975e-05 -6.2119505074600381e-05 0 -2.036194356383543e-05 -5.2390386433514072e-05 0 -2.8125896204673975e-05 -6.2119505074600381e-05 0 -3.3119559809334433e-05 -5.3299365507672718e-05 0 -2.036194356383543e-05 -5.2390386433514072e-05 0 -3.3684118642360244e-05 -7.5851381572936201e-05 0 -2.2225196199850222e-05 -7.0119406835938172e-05 0 -2.8125896204673975e-05 -6.2119505074600381e-05 0 -3.3684118642360244e-05 -7.5851381572936201e-05 0 -2.8125896204673975e-05 -6.2119505074600381e-05 0 -3.7800525753789561e-05 -6.5474331179318239e-05 0 -2.8125896204673975e-05 -6.2119505074600381e-05 0 -3.7800525753789561e-05 -6.5474331179318239e-05 0 -3.3119559809334433e-05 -5.3299365507672718e-05 0 -3.7800525753789561e-05 -6.5474331179318239e-05 0 -4.6538788125398928e-05 -6.2458786857219942e-05 0 -3.3119559809334433e-05 -5.3299365507672718e-05 0 -4.922605386123947e-05 -7.6545702672119011e-05 0 -3.7800525753789561e-05 -6.5474331179318239e-05 0 -4.6538788125398928e-05 -6.2458786857219942e-05 0 -4.32814985601974e-05 -4.953741164690856e-05 0 -3.3109107323479962e-05 -4.2321110567991242e-05 0 -3.9174100896319126e-05 -3.791814935339813e-05 0 -4.6538788125398928e-05 -6.2458786857219942e-05 0 -4.32814985601974e-05 -4.953741164690856e-05 0 -3.3119559809334433e-05 -5.3299365507672718e-05 0 -4.32814985601974e-05 -4.953741164690856e-05 0 -3.3119559809334433e-05 -5.3299365507672718e-05 0 -3.3109107323479962e-05 -4.2321110567991242e-05 0 -3.3119559809334433e-05 -5.3299365507672718e-05 0 -3.3109107323479962e-05 -4.2321110567991242e-05 0 -2.46177378873235e-05 -4.2017537120364991e-05 0 -3.3119559809334433e-05 -5.3299365507672718e-05 0 -2.46177378873235e-05 -4.2017537120364991e-05 0 -2.036194356383543e-05 -5.2390386433514072e-05 0 -2.036194356383543e-05 -5.2390386433514072e-05 0 -1.7249518653169949e-05 -4.3467773465061295e-05 0 -1.0980389351154788e-05 -5.2841544188974676e-05 0 -2.46177378873235e-05 -4.2017537120364991e-05 0 -2.036194356383543e-05 -5.2390386433514072e-05 0 -1.7249518653169949e-05 -4.3467773465061295e-05 0 -1.7249518653169949e-05 -4.3467773465061295e-05 0 -1.8428270067717508e-05 -3.5444349648666853e-05 0 -1.0551145951932239e-05 -3.7214134278475756e-05 0 -2.46177378873235e-05 -4.2017537120364991e-05 0 -1.7249518653169949e-05 -4.3467773465061295e-05 0 -1.8428270067717508e-05 -3.5444349648666853e-05 0 -1.8428270067717508e-05 -3.5444349648666853e-05 0 -1.4824666855538811e-05 -2.6873713368708884e-05 0 -2.5813817248734488e-05 -3.0792872608919895e-05 0 -1.7915748007865212e-05 -2.1743727851239571e-05 0 -1.4824666855538811e-05 -2.6873713368708884e-05 0 -2.5813817248734488e-05 -3.0792872608919895e-05 0 -2.46177378873235e-05 -4.2017537120364991e-05 0 -1.8428270067717508e-05 -3.5444349648666853e-05 0 -2.5813817248734488e-05 -3.0792872608919895e-05 0 -3.3109107323479962e-05 -4.2321110567991242e-05 0 -2.5813817248734488e-05 -3.0792872608919895e-05 0 -3.9174100896319126e-05 -3.791814935339813e-05 0 -3.3109107323479962e-05 -4.2321110567991242e-05 0 -2.46177378873235e-05 -4.2017537120364991e-05 0 -2.5813817248734488e-05 -3.0792872608919895e-05 0 -3.5012754005483568e-05 -2.798285813089329e-05 0 -2.5813817248734488e-05 -3.0792872608919895e-05 0 -3.9174100896319126e-05 -3.791814935339813e-05 0 5.9467229447662637e-06 -4.5240717740380632e-05 0 -3.98714729693599e-06 -4.4852775326286046e-05 0 -1.4867921165425806e-06 -3.4099906626765423e-05 0 5.9467229447662637e-06 -4.5240717740380632e-05 0 -1.4867921165425806e-06 -3.4099906626765423e-05 0 6.4134192868953165e-06 -3.048431112781168e-05 0 -2.3022260834321757e-06 -5.69508812541538e-05 0 5.9467229447662637e-06 -4.5240717740380632e-05 0 -3.98714729693599e-06 -4.4852775326286046e-05 0 -2.3022260834321757e-06 -5.69508812541538e-05 0 -3.98714729693599e-06 -4.4852775326286046e-05 0 -1.0980389351154788e-05 -5.2841544188974676e-05 0 -1.7249518653169949e-05 -4.3467773465061295e-05 0 -1.0980389351154788e-05 -5.2841544188974676e-05 0 -1.0551145951932239e-05 -3.7214134278475756e-05 0 -3.98714729693599e-06 -4.4852775326286046e-05 0 -1.0980389351154788e-05 -5.2841544188974676e-05 0 -1.0551145951932239e-05 -3.7214134278475756e-05 0 -3.98714729693599e-06 -4.4852775326286046e-05 0 -1.0551145951932239e-05 -3.7214134278475756e-05 0 -1.4867921165425806e-06 -3.4099906626765423e-05 0 -1.0551145951932239e-05 -3.7214134278475756e-05 0 -7.2499109780695986e-06 -2.7017908887412024e-05 0 -1.4867921165425806e-06 -3.4099906626765423e-05 0 -1.8428270067717508e-05 -3.5444349648666853e-05 0 -1.4824666855538811e-05 -2.6873713368708884e-05 0 -1.0551145951932239e-05 -3.7214134278475756e-05 0 -1.0820619632735437e-05 -2.1679913463337303e-05 0 -1.4824666855538811e-05 -2.6873713368708884e-05 0 -7.2499109780695986e-06 -2.7017908887412024e-05 0 -1.4824666855538811e-05 -2.6873713368708884e-05 0 -1.0551145951932239e-05 -3.7214134278475756e-05 0 -7.2499109780695986e-06 -2.7017908887412024e-05 0 -7.2499109780695986e-06 -2.7017908887412024e-05 0 -1.4101217887849508e-06 -2.3923199823395109e-05 0 -1.4867921165425806e-06 -3.4099906626765423e-05 0 -1.4101217887849508e-06 -2.3923199823395109e-05 0 -1.4867921165425806e-06 -3.4099906626765423e-05 0 6.4134192868953165e-06 -3.048431112781168e-05 0 4.6137195451521776e-06 -1.9999870037709818e-05 0 -1.4101217887849508e-06 -2.3923199823395109e-05 0 6.4134192868953165e-06 -3.048431112781168e-05 0 4.6137195451521776e-06 -1.9999870037709818e-05 0 1.0288919775843177e-05 -1.6994329034383724e-05 0 6.4134192868953165e-06 -3.048431112781168e-05 0 1.0288919775843177e-05 -1.6994329034383724e-05 0 8.8642526865959924e-06 -1.3797056070820625e-05 0 8.6724775768852794e-06 -1.3422503173873113e-05 0 1.0288919775843177e-05 -1.6994329034383724e-05 0 1.6606717366550507e-05 -3.2954224558826134e-05 0 6.4134192868953165e-06 -3.048431112781168e-05 0 8.932851287898716e-06 -1.6529377852598819e-05 0 1.3246620652281253e-05 -2.3706318582046485e-05 0 1.6606717366550507e-05 -3.2954224558826134e-05 0 6.4134192868953165e-06 -3.048431112781168e-05 0 1.2850215984480884e-05 -4.024894957852551e-05 0 5.9467229447662637e-06 -4.5240717740380632e-05 0 6.4134192868953165e-06 -3.048431112781168e-05 0 1.2850215984480884e-05 -4.024894957852551e-05 0 1.3246620652281253e-05 -2.3706318582046485e-05 0 1.4697438933025714e-05 -3.1038064987615803e-05 0 1.6606717366550507e-05 -3.2954224558826134e-05 0 1.2850215984480884e-05 -4.024894957852551e-05 0 2.0865308667837401e-05 -4.5529636148462985e-05 0 1.4697438933025714e-05 -3.1038064987615803e-05 0 1.6739791692232615e-05 -3.9660243015392548e-05 0 1.2850215984480884e-05 -4.024894957852551e-05 0 2.0865308667837401e-05 -4.5529636148462985e-05 0 1.4346828467838582e-05 -5.2714486539482209e-05 0 5.9467229447662637e-06 -4.5240717740380632e-05 0 1.2850215984480884e-05 -4.024894957852551e-05 0 1.4346828467838582e-05 -5.2714486539482209e-05 0 1.0636449395841991e-05 -1.7373530102082589e-05 0 9.8684591778259682e-06 -1.388251494288574e-05 0 1.196214783596764e-05 -1.61904973464789e-05 0 8.7537524066364363e-06 -1.6676542582199342e-05 0 1.0636449395841991e-05 -1.7373530102082589e-05 0 9.2738728117234093e-06 -2.071933154941521e-05 0 8.7537524066364363e-06 -1.6676542582199342e-05 0 1.0636449395841991e-05 -1.7373530102082589e-05 0 9.8684591778259682e-06 -1.388251494288574e-05 0 8.8642526865959924e-06 -1.3797056070820625e-05 0 8.7537524066364363e-06 -1.6676542582199342e-05 0 9.8684591778259682e-06 -1.388251494288574e-05 0 9.8684591778259682e-06 -1.388251494288574e-05 0 8.6724775768852794e-06 -1.3422503173873113e-05 0 9.8978400665175818e-06 -1.1456884802341199e-05 0 8.8642526865959924e-06 -1.3797056070820625e-05 0 9.8684591778259682e-06 -1.388251494288574e-05 0 8.6724775768852794e-06 -1.3422503173873113e-05 0 8.6990175633793932e-06 -1.2274115703179661e-05 0 1.0288919775843177e-05 -1.6994329034383724e-05 0 8.6724775768852794e-06 -1.3422503173873113e-05 0 8.6990175633793932e-06 -1.2274115703179661e-05 0 8.6724775768852794e-06 -1.3422503173873113e-05 0 9.8978400665175818e-06 -1.1456884802341199e-05 0 9.8684591778259682e-06 -1.388251494288574e-05 0 9.8978400665175818e-06 -1.1456884802341199e-05 0 1.2160323664993364e-05 -1.3844750987074653e-05 0 9.8978400665175818e-06 -1.1456884802341199e-05 0 1.2555365371244787e-05 -1.0664232330090596e-05 0 1.2160323664993364e-05 -1.3844750987074653e-05 0 1.0927419224167515e-05 -8.0573506849898185e-06 0 9.8978400665175818e-06 -1.1456884802341199e-05 0 1.2555365371244787e-05 -1.0664232330090596e-05 0 1.2715289529162434e-05 -6.1103407014708833e-06 0 1.4416191555008494e-05 -8.9045608071134771e-06 0 1.2555365371244787e-05 -1.0664232330090596e-05 0 1.2715289529162434e-05 -6.1103407014708833e-06 0 1.0927419224167515e-05 -8.0573506849898185e-06 0 1.2555365371244787e-05 -1.0664232330090596e-05 0 1.4416191555008494e-05 -8.9045608071134771e-06 0 1.567703865482172e-05 -1.3017972333053656e-05 0 1.2555365371244787e-05 -1.0664232330090596e-05 0 1.567703865482172e-05 -1.3017972333053656e-05 0 1.4219772034777437e-05 -1.3710981405521983e-05 0 1.6811276039595027e-05 -1.665994797441101e-05 0 1.567703865482172e-05 -1.3017972333053656e-05 0 1.2555365371244787e-05 -1.0664232330090596e-05 0 1.4219772034777437e-05 -1.3710981405521983e-05 0 1.4219772034777437e-05 -1.3710981405521983e-05 0 1.4896211594986808e-05 -1.6368484567731484e-05 0 1.2160323664993364e-05 -1.3844750987074653e-05 0 1.2555365371244787e-05 -1.0664232330090596e-05 0 1.4219772034777437e-05 -1.3710981405521983e-05 0 1.2160323664993364e-05 -1.3844750987074653e-05 0 1.4219772034777437e-05 -1.3710981405521983e-05 0 1.4896211594986808e-05 -1.6368484567731484e-05 0 1.6811276039595027e-05 -1.665994797441101e-05 0 9.8684591778259682e-06 -1.388251494288574e-05 0 1.2160323664993364e-05 -1.3844750987074653e-05 0 1.196214783596764e-05 -1.61904973464789e-05 0 1.4896211594986808e-05 -1.6368484567731484e-05 0 1.2160323664993364e-05 -1.3844750987074653e-05 0 1.4443367330976723e-05 -1.844086735675344e-05 0 1.2160323664993364e-05 -1.3844750987074653e-05 0 1.196214783596764e-05 -1.61904973464789e-05 0 1.4443367330976723e-05 -1.844086735675344e-05 0 1.196214783596764e-05 -1.61904973464789e-05 0 1.4443367330976723e-05 -1.844086735675344e-05 0 1.2550663208638202e-05 -1.999315967791042e-05 0 1.4443367330976723e-05 -1.844086735675344e-05 0 1.7316464909903213e-05 -1.9549323456235068e-05 0 1.7554827547988589e-05 -2.2330869193170944e-05 0 1.4443367330976723e-05 -1.844086735675344e-05 0 1.5001860372436718e-05 -2.1899994095431025e-05 0 1.7554827547988589e-05 -2.2330869193170944e-05 0 1.4443367330976723e-05 -1.844086735675344e-05 0 1.5001860372436718e-05 -2.1899994095431025e-05 0 1.2550663208638202e-05 -1.999315967791042e-05 0 1.6811276039595027e-05 -1.665994797441101e-05 0 1.956661631325539e-05 -1.9956812977191897e-05 0 1.7316464909903213e-05 -1.9549323456235068e-05 0 1.4896211594986808e-05 -1.6368484567731484e-05 0 1.6811276039595027e-05 -1.665994797441101e-05 0 1.7316464909903213e-05 -1.9549323456235068e-05 0 1.4896211594986808e-05 -1.6368484567731484e-05 0 1.4443367330976723e-05 -1.844086735675344e-05 0 1.7316464909903213e-05 -1.9549323456235068e-05 0 1.7316464909903213e-05 -1.9549323456235068e-05 0 2.0774811146773395e-05 -2.3018647579123279e-05 0 1.7554827547988589e-05 -2.2330869193170944e-05 0 1.956661631325539e-05 -1.9956812977191897e-05 0 1.7316464909903213e-05 -1.9549323456235068e-05 0 2.0774811146773395e-05 -2.3018647579123279e-05 0 2.4433083005369408e-05 -2.4838324805537228e-05 0 2.0774811146773395e-05 -2.3018647579123279e-05 0 2.3570714168792754e-05 -2.6250501969394129e-05 0 2.0774811146773395e-05 -2.3018647579123279e-05 0 2.0763426946505921e-05 -2.5848725306061424e-05 0 1.7554827547988589e-05 -2.2330869193170944e-05 0 2.0774811146773395e-05 -2.3018647579123279e-05 0 2.0763426946505921e-05 -2.5848725306061424e-05 0 2.3570714168792754e-05 -2.6250501969394129e-05 0 1.5001860372436718e-05 -2.1899994095431025e-05 0 1.7771733376574644e-05 -2.5367447760156263e-05 0 1.5268297066030578e-05 -2.4879852900910627e-05 0 2.0763426946505921e-05 -2.5848725306061424e-05 0 1.7554827547988589e-05 -2.2330869193170944e-05 0 1.7771733376574644e-05 -2.5367447760156263e-05 0 1.5001860372436718e-05 -2.1899994095431025e-05 0 1.7554827547988589e-05 -2.2330869193170944e-05 0 1.7771733376574644e-05 -2.5367447760156263e-05 0 2.000321811955941e-05 -2.8830215570226207e-05 0 2.0763426946505921e-05 -2.5848725306061424e-05 0 1.7771733376574644e-05 -2.5367447760156263e-05 0 1.7771733376574644e-05 -2.5367447760156263e-05 0 1.6993128573295048e-05 -2.7372001978148976e-05 0 1.5268297066030578e-05 -2.4879852900910627e-05 0 2.000321811955941e-05 -2.8830215570226207e-05 0 1.7771733376574644e-05 -2.5367447760156263e-05 0 1.6993128573295048e-05 -2.7372001978148976e-05 0 1.6993128573295048e-05 -2.7372001978148976e-05 0 1.5268297066030578e-05 -2.4879852900910627e-05 0 1.4215392912559193e-05 -2.6817220012825572e-05 0 1.5268297066030578e-05 -2.4879852900910627e-05 0 1.258988240240475e-05 -2.3220223323021755e-05 0 1.4215392912559193e-05 -2.6817220012825572e-05 0 1.5001860372436718e-05 -2.1899994095431025e-05 0 1.5268297066030578e-05 -2.4879852900910627e-05 0 1.258988240240475e-05 -2.3220223323021755e-05 0 1.258988240240475e-05 -2.3220223323021755e-05 0 1.4215392912559193e-05 -2.6817220012825572e-05 0 1.0604876258370323e-05 -2.527779429628104e-05 0 1.5399970749112306e-05 -8.0665279080070822e-05 0 3.0056850914475452e-05 -8.6578480817985534e-05 0 2.7187053024573822e-05 -7.2258834965390473e-05 0 2.1280279522679687e-05 -5.8150073103254858e-05 0 1.8845471559783958e-05 -4.8777021616246727e-05 0 1.4215392912559193e-05 -2.6817220012825572e-05 0 1.2652837572172441e-05 -2.9703996929108574e-05 0 1.0604876258370323e-05 -2.527779429628104e-05 0 2.0063006550585453e-05 -9.4144837209841762e-05 0 1.5399970749112306e-05 -8.0665279080070822e-05 0 3.0056850914475452e-05 -8.6578480817985534e-05 0 1.5399970749112306e-05 -8.0665279080070822e-05 0 2.7187053024573822e-05 -7.2258834965390473e-05 0 1.564015826408998e-05 -6.7276924237219321e-05 0 2.7187053024573822e-05 -7.2258834965390473e-05 0 1.564015826408998e-05 -6.7276924237219321e-05 0 2.4179713424338299e-05 -5.8588214407761147e-05 0 1.258988240240475e-05 -2.3220223323021755e-05 0 1.0604876258370323e-05 -2.527779429628104e-05 0 9.2738728117234093e-06 -2.071933154941521e-05 0 1.8845471559783958e-05 -4.8777021616246727e-05 0 1.6739791692232615e-05 -3.9660243015392548e-05 0 1.564015826408998e-05 -6.7276924237219321e-05 0 1.4346828467838582e-05 -5.2714486539482209e-05 0 2.4179713424338299e-05 -5.8588214407761147e-05 0 6.7274413271024866e-06 -6.0517121628141081e-05 0 1.564015826408998e-05 -6.7276924237219321e-05 0 1.4346828467838582e-05 -5.2714486539482209e-05 0 2.0865308667837401e-05 -4.5529636148462985e-05 0 1.4346828467838582e-05 -5.2714486539482209e-05 0 2.4179713424338299e-05 -5.8588214407761147e-05 0 1.0636449395841991e-05 -1.7373530102082589e-05 0 9.2738728117234093e-06 -2.071933154941521e-05 0 1.2550663208638202e-05 -1.999315967791042e-05 0 1.0636449395841991e-05 -1.7373530102082589e-05 0 1.196214783596764e-05 -1.61904973464789e-05 0 1.2550663208638202e-05 -1.999315967791042e-05 0 1.5001860372436718e-05 -2.1899994095431025e-05 0 1.258988240240475e-05 -2.3220223323021755e-05 0 1.2550663208638202e-05 -1.999315967791042e-05 0 1.258988240240475e-05 -2.3220223323021755e-05 0 9.2738728117234093e-06 -2.071933154941521e-05 0 1.2550663208638202e-05 -1.999315967791042e-05 0 
</DataArray>
</PointData>
<CellData Scalars="region_id,von_mises_stress,cross_section_updated,displacement_divergence," Vectors="" Tensors="stress,">
<DataArray type="Float64" Name="region_id" format="ascii">
1 1 1 1 1 1 1 1 1 1 1 1 1 1 1 1 1 1 1 1 1 1 1 1 1 1 1 1 1 1 1 1 1 1 1 1 1 1 1 1 1 1 1 1 1 1 1 1 1 1 1 1 1 1 1 1 1 1 1 1 1 1 1 1 1 1 1 1 1 1 1 1 1 1 1 1 1 1 1 1 1 1 1 1 1 1 1 1 1 1 1 1 1 1 1 1 1 1 1 1 1 1 1 1 1 1 1 1 1 1 1 1 1 1 1 1 1 1 1 1 1 1 1 1 1 1 1 1 1 1 1 1 1 1 1 1 1 1 1 1 1 1 1 1 1 1 1 1 1 1 1 1 1 1 1 1 1 1 1 1 1 1 1 1 1 1 1 1 1 1 1 1 1 1 1 1 1 1 1 1 1 1 1 1 1 1 1 1 1 1 1 1 1 1 1 1 1 1 1 1 1 1 1 1 1 1 1 1 1 1 1 1 1 1 1 1 1 1 1 1 1 1 1 1 1 1 1 1 1 1 1 1 1 1 1 1 1 1 1 1 1 1 1 1 1 1 1 1 1 1 1 1 1 1 1 1 1 1 1 1 1 1 1 1 1 1 1 1 1 1 1 1 1 1 1 1 1 1 1 1 1 1 1 1 1 1 1 1 1 1 1 1 1 1 1 1 1 1 1 1 1 1 1 1 1 1 1 1 1 1 1 1 1 1 1 1 1 1 1 1 1 1 1 1 1 1 1 1 1 1 1 1 1 1 1 1 1 1 1 1 1 1 1 1 1 1 1 1 1 1 1 1 1 1 1 1 1 1 1 1 1 1 1 1 1 1 1 1 1 1 1 1 1 1 1 1 1 1 1 1 1 1 1 1 1 1 1 1 1 1 1 1 1 1 1 1 1 1 1 1 1 1 1 1 1 1 1 1 1 1 1 1 1 1 1 1 1 1 1 1 1 1 1 1 1 1 1 1 1 1 1 1 1 1 1 1 1 1 1 1 1 1 1 1 1 1 1 1 1 1 1 1 1 1 1 1 1 1 1 1 1 1 1 1 1 1 1 1 1 1 1 1 1 1 1 1 1 1 1 1 1 1 1 1 1 1 1 1 1 1 1 1 1 1 1 1 1 1 1 1 1 1 1 1 1 1 1 1 1 1 1 1 1 1 1 1 1 1 1 1 1 1 1 1 1 1 1 1 1 1 1 1 1 1 1 1 1 1 3 1 1 3 1 1 3 1 1 1 1 1 1 1 1 1 1 1 1 1 3 1 1 1 1 1 3 1 1 1 1 1 1 1 1 1 1 1 1 1 1 1 1 1 1 1 1 1 1 1 1 1 1 1 1 1 1 1 1 1 1 1 1 1 1 1 1 1 1 1 1 1 1 1 1 1 1 1 1 1 1 1 1 1 1 1 1 1 1 1 1 1 1 1 1 1 1 1 1 1 1 1 1 1 1 1 1 1 1 1 1 1 1 1 1 1 1 1 1 1 1 1 1 1 1 1 1 1 1 1 1 1 1 1 1 1 1 1 1 1 1 1 1 1 1 1 1 1 1 1 1 1 1 1 1 1 1 1 1 1 1 1 1 1 1 1 1 1 1 1 1 1 1 1 1 1 1 1 1 1 1 1 1 1 1 1 1 1 1 1 1 1 1 1 1 3 1 1 1 3 1 1 3 1 1 1 1 1 1 1 1 1 1 1 3 1 1 1 1 3 1 1 1 1 1 1 1 1 1 1 1 1 1 1 1 1 1 1 1 1 1 1 1 1 1 1 1 1 1 1 1 1 1 1 1 1 1 1 1 1 1 1 1 1 1 1 1 1 1 1 1 1 1 1 1 1 1 1 2 1 1 1 1 1 1 1 1 1 1 1 1 1 1 2 1 1 2 1 2 1 1 1 1 1 1 1 1 1 1 1 1 1 2 1 1 1 1 1 1 1 1 1 1 1 1 1 1 1 1 1 1 1 1 1 1 1 1 1 1 1 1 1 1 1 1 1 1 1 1 1 1 1 1 1 1 1 1 1 1 1 1 1 1 1 1 1 1 1 1 1 1 1 1 1 1 1 1 1 1 1 1 1 1 1 1 1 1 1 1 1 1 1 1 1 1 1 1 1 1 1 1 1 1 1 1 1 1 1 1 1 1 1 1 1 1 1 1 1 1 1 1 1 1 1 1 1 1 1 1 1 1 1 1 1 1 1 1 1 1 1 1 1 1 1 1 1 1 1 1 2 1 1 2 1 2 1 1 1 1 1 1 1 1 1 1 1 1 1 1 1 1 1 1 1 1 1 1 1 1 1 1 1 1 1 1 1 1 1 1 1 1 1 1 1 1 1 1 1 1 1 1 1 2 1 1 1 1 1 2 1 1 1 1 1 1 1 
</DataArray>
<DataArray type="Float64" Name="stress" NumberOfComponents="9" format="ascii">
-0.041734540945081319 0.00082220969461471206 0 0.00082220969461471206 -0.0051564634018982708 0 0 0 -0.011722751086744898 -0.038173735026328592 0.0015466518210553639 0 0.0015466518210553639 -0.012700019861322617 0 0 0 -0.012718438721912802 -0.040783596730760173 0.0028858307959936692 0 0.0028858307959936692 0.0019943533353101658 0 0 0 -0.0096973108488625018 -0.037662501411189125 0.0033084409469119362 0 0.0033084409469119362 -0.0060205359895423409 0 0 0 -0.010920759350182869 -0.029658284169933713 0.007725628327640119 0 0.007725628327640119 -0.009891507649156854 0 0 0 -0.0098874479547726452 -0.029652202225305388 0.0077301989023624536 0 0.0077301989023624536 -0.0098720430623477785 0 0 0 -0.0098810613219132929 -0.034007307742632463 0.0074295621465292469 0 0.0074295621465292469 -0.0025605448741625502 0 0 0 -0.0091419631541987505 -0.036515653582770341 0.0068807020327322959 0 0.0068807020327322959 -0.0035785865959326417 0 0 0 -0.010023560044675747 -0.032781103766185024 0.0089774140146943633 0 0.0089774140146943633 -0.0027531248530541091 0 0 0 -0.0088835571548097798 -0.025242804257214362 0.0092135217105369233 0 0.0092135217105369233 -0.00076905681026829403 0 0 0 -0.0065029652668706561 -0.03757751341614303 0.0095182490461760225 0 0.0095182490461760225 -0.0015315817144882088 0 0 0 -0.0097772737826578131 -0.024768741545388686 0.010623721199923783 0 0.010623721199923783 0.0006201440358914144 0 0 0 -0.0060371493773743214 -0.046688604451102102 0.0075230019097745383 0 0.0075230019097745383 -0.00067578454750195222 0 0 0 -0.011841097249651017 -0.036311147726914621 0.008018034314615112 0 0.008018034314615112 0.00056254855598658962 0 0 0 -0.0089371497927320052 -0.056618095459498974 0.0028310888328704049 0 0.0028310888328704049 -0.0018111096681477032 0 0 0 -0.014607301281911672 -0.04691535637136731 0.0036807141424094435 0 0.0036807141424094435 -0.00016259520864996146 0 0 0 -0.011769487895004319 -0.042289463454989351 0.0054775812303208592 0 0.0054775812303208592 0.0024957376002082798 0 0 0 -0.0099484314636952686 -0.042992823356237476 0.0076668438646250777 0 0.0076668438646250777 -0.00094106203702450444 0 0 0 -0.0109834713483155 -0.0033609550173776446 0.01092232146050183 0 0.01092232146050183 -0.0011176191377874486 0 0 0 -0.0011196435387912729 -0.0086085920706973924 0.013739515304406475 0 0.013739515304406475 -0.0018592695504959407 0 0 0 -0.002616965405298332 -0.0098267827091153385 0.0099058000991415901 0 0.0099058000991415901 -0.00090551255550467592 0 0 0 -0.0026830738161550036 -0.019694526536492601 0.012146806913396421 0 0.012146806913396421 -0.0014502914917777811 0 0 0 -0.0052862045070675946 -0.020904826001002422 0.011122562474861507 0 0.011122562474861507 -0.0044891006033299999 0 0 0 -0.0063484816510831037 -0.012386481905223987 0.01216299657772028 0 0.01216299657772028 -0.0025263682438592221 0 0 0 -0.0037282125372708023 -0.012693178540595726 0.010534705584577194 0 0.010534705584577194 -0.0042366772705896717 0 0 0 -0.0042324639527963493 -0.021928029710983298 0.01215964556707788 0 0.01215964556707788 -0.00096511113851363572 0 0 0 -0.0057232852123742309 -0.023015076081667418 0.0090772754492659206 0 0.0090772754492659206 -0.00096619270857551884 0 0 0 -0.005995317197560736 -0.019182917438347068 0.010033214137139113 0 0.010033214137139113 -0.0022562771049177352 0 0 0 -0.0053597986358161973 -0.0074273433810531884 0.0095880430677078941 0 0.0095880430677078941 -0.00029847833689626221 0 0 0 -0.0019314554294873609 -0.0081177652720238087 0.010986307692692935 0 0.010986307692692935 -0.0017506032702709409 0 0 0 -0.0024670921355736865 -0.002938650518099481 0.012984377252036258 0 0.012984377252036258 -0.0015919945694160692 0 0 0 -0.0011326612718788875 0.0013325875339384469 0.0091485552136957009 0 0.0091485552136957009 0.00040125119728546405 0 0 0 0.00043345968280597731 0.00055355258959084719 0.011337977638101456 0 0.011337977638101456 -0.0011282877634939681 0 0 0 -0.00014368379347577676 0.00058915707262793479 0.0081303056559288295 0 0.0081303056559288295 0.00022811628635764636 0 0 0 0.00020431833974639615 -0.0089137378501794456 0.012034645879707083 0 0.012034645879707083 -0.00071610323364294098 0 0 0 -0.0024074602709555949 -0.022974699426517763 0.012188376156793098 0 0.012188376156793098 -0.00059937850653959956 0 0 0 -0.0058935194832643338 -0.018442851121241485 0.012114266025229916 0 0.012114266025229916 -0.00097373477046868578 0 0 0 -0.0048541464729275376 -0.011104238963058129 0.0094463017118854506 0 0.0094463017118854506 0.00066080565642766959 0 0 0 -0.0026108583266576148 -0.022975344815654476 0.0099725508154520255 0 0.0099725508154520255 0.0011548369588124524 0 0 0 -0.0054551269642105034 -0.025691761425939312 0.012285046488809809 0 0.012285046488809809 2.881412985685991e-05 0 0 0 -0.0064157368240206122 -0.017227840045846467 0.0093769310409655519 0 0.0093769310409655519 0.00070258585647456806 0 0 0 -0.0041313135473429827 -0.011691740093966547 0.012557543314480196 0 0.012557543314480196 0.0018633914644146706 0 0 0 -0.0024570871573879687 -0.011989001078860251 0.0093652044492803042 0 0.0093652044492803042 0.0020719853954883618 0 0 0 -0.0024792539208429655 -0.0010820701314729936 0.008418733002648858 0 0.008418733002648858 0.0014927359752140801 0 0 0 0.00010266646093526983 -0.010910109719861776 0.012328739820290603 0 0.012328739820290603 0.00011651578212363428 0 0 0 -0.0026983984844345318 -0.0073383967525925999 0.0075001670674466475 0 0.0075001670674466475 0.0031320612129498585 0 0 0 -0.0010515838849106827 0.0088974233615972016 0.0073567791249662413 0 0.0073567791249662413 0.0015460829836746008 0 0 0 0.002610876586317948 0.00016980420735924345 0.0099863115259295407 0 0.0099863115259295407 0.0015936798877554254 0 0 0 0.0004408710237786672 -0.054512809471355235 0.0032951700823670611 0 0.0032951700823670611 -0.0019344611477582867 0 0 0 -0.014111817654778386 -0.04345040708694288 0.0093052528339050977 0 0.0093052528339050977 -4.3069445564848652e-05 0 0 0 -0.010873369133126927 -0.065689354638831771 0.0049259196896826538 0 0.0049259196896826538 -0.00027834114586197667 0 0 0 -0.016491923946173426 -0.04538814292352894 0.0067474323430059139 0 0.0067474323430059139 0.0016432779398707215 0 0 0 -0.010936216245914551 -0.033897155032056772 0.0091334836612258635 0 0.0091334836612258635 0.0010325342943896636 0 0 0 -0.0082161551844167763 -0.034906670740952564 0.010022122268498468 0 0.010022122268498468 -0.00063474867010977071 0 0 0 -0.0088853548527655819 -0.035561306730982761 0.01155465064875209 0 0.01155465064875209 -0.0004863913473141003 0 0 0 -0.0090119245195742128 -0.04097063655569122 0.007510725585258126 0 0.007510725585258126 0.0011847850680880194 0 0 0 -0.0099464628719007925 -0.027862639809154936 0.0092685600201035129 0 0.0092685600201035129 0.00030313809044800813 0 0 0 -0.0068898754296767267 -0.042361066224880166 0.010687623593245422 0 0.010687623593245422 -0.00019744424707902712 0 0 0 -0.010639627617989797 -0.032279320509460988 0.008222157845474927 0 0.008222157845474927 0.00027107056781174033 0 0 0 -0.0080020624854123118 -0.041426027014039815 0.0082634958719457578 0 0.0082634958719457578 0.0012231564132545863 0 0 0 -0.010050717650196304 -0.057545260824351706 0.006080325309926176 0 0.006080325309926176 -3.0975543982743325e-05 0 0 0 -0.014394059092083609 -0.055657352868275382 0.0064071605589906076 0 0.0064071605589906076 -0.00049489394112832864 0 0 0 -0.014038061702350942 -0.054190932904515307 0.004091295547054871 0 0.004091295547054871 0.0008645801956690749 0 0 0 -0.013331588177211556 -0.073697598013006363 0.0047736693160748411 0 0.0047736693160748411 -0.00022024234307484181 0 0 0 -0.018479460089020305 -0.077423007035505947 0.0039714842209740073 0 0.0039714842209740073 2.0581176710804394e-05 0 0 0 -0.019350606464698796 -0.05641337595640647 0.0053317207299321337 0 0.0053317207299321337 0.0020250035848590406 0 0 0 -0.013597093092886854 -0.063730854232206313 0.0033536509417092589 0 0.0033536509417092589 0.0016418769847037287 0 0 0 -0.015522244311875641 -0.088397852473234645 0.0024967702736525266 0 0.0024967702736525266 0.0021909041835673215 0 0 0 -0.021551737072416845 -0.065991219391207195 0.0075866159063915188 0 0.0075866159063915188 0.0031925324390306153 0 0 0 -0.015699671738044145 -0.063133406018390209 0.00087062089859112068 0 0.00087062089859112068 0.00095471691200874759 0 0 0 -0.015544672276595395 -0.06957987739020198 0.0028396357625117483 0 0.0028396357625117483 0.0037737811447366987 0 0 0 -0.01645152406136631 -0.097350009644106672 -0.00068550529080028955 0 -0.00068550529080028955 0.00034188620550530679 0 0 0 -0.024252030859650338 -0.03733285941889869 0.0026037707499808049 0 0.0026037707499808049 0.0062361632843288481 0 0 0 -0.0077741740336424586 -0.031236507111704222 0.010414682685602868 0 0.010414682685602868 0.0045398489975036621 0 0 0 -0.0066741645285501444 -0.048706340509738266 0.0069435166801955911 0 0.0069435166801955911 0.0009482234787833721 0 0 0 -0.011939529257738724 -0.047862257636523825 0.0072848067284631245 0 0.0072848067284631245 0.0034484706184402941 0 0 0 -0.011103446754520879 -0.031734304131025105 0.011442619099909852 0 0.011442619099909852 0.0031063294504278249 0 0 0 -0.0071569936701493114 -0.057537957562239415 0.010756936551310808 0 0.010756936551310808 0.0036476301754527068 0 0 0 -0.013472581846696675 -0.046944377434310444 0.0065628921626122976 0 0.0065628921626122976 0.00045190949605366029 0 0 0 -0.011623116984564192 -0.042822366236407269 0.011133370956449571 0 0.011133370956449571 0.0018794249353825329 0 0 0 -0.010235735325256184 -0.029607112145067623 0.011452975136621092 0 0.011452975136621092 0.0017103861555519632 0 0 0 -0.0069741814973789257 -0.018071409304456852 0.010753653749950434 0 0.010753653749950434 0.0021223495611991869 0 0 0 -0.0039872649358144155 -0.017743243312878219 0.0084256408217056704 0 0.0084256408217056704 0.0030223647184734227 0 0 0 -0.0036802196486011986 -0.015414972609946037 0.007651160960172862 0 0.007651160960172862 0.005742797595149729 0 0 0 -0.0024180437536990909 -0.0062562745898437078 0.010324774537257705 0 0.010324774537257705 0.0029700911311055442 0 0 0 -0.00082154586468453569 -0.031112606065095083 0.008587915460925322 0 0.008587915460925322 0.0032217571900846689 0 0 0 -0.0069727122187526105 0.0031658041530306233 0.0064521328741845366 0 0.0064521328741845366 0.0052521283957520665 0 0 0 0.0021044831371956731 0.00031529453169421235 0.010634032025364658 0 0.010634032025364658 0.0016068136462674288 0 0 0 0.00048052704449041148 -0.0039117328152973117 0.0060967864909545512 0 0.0060967864909545512 0.0065618670197259872 0 0 0 0.00066253355110716845 0.011166915171061425 0.0021777007064605262 0 0.0021777007064605262 0.0089015810379316287 0 0 0 0.0050171240522482626 0.007634083846232001 0.0086877409198342671 0 0.0086877409198342671 0.0052922078414044532 0 0 0 0.0032315729219091135 -0.0013152246099374341 0.0060742388535156427 0 0.0060742388535156427 0.010961011772655738 0 0 0 0.0024114467906795854 0.013994521394787858 0.003711895626854908 0 0.003711895626854908 0.011379798264917654 0 0 0 0.0063435799149263797 0.013951021861333228 0.0025092718605675135 0 0.0025092718605675135 0.017703573411182172 0 0 0 0.0079136488181288447 -0.016734909643644512 0.01092151470853478 0 0.01092151470853478 0.0044128786433010048 0 0 0 -0.0030805077500858716 -0.024568179313099972 0.0053078217910010467 0 0.0053078217910010467 0.0053505869132393774 0 0 0 -0.0048043980999651504 -0.0020346917503231143 0.0070778261919187888 0 0.0070778261919187888 0.0059426051105569422 0 0 0 0.00097697834005845696 -0.0094778384724756425 0.0034580764330315317 0 0.0034580764330315317 0.0094924132199997457 0 0 0 3.6436868810236361e-06 -0.014881447292216105 0.0098939289028088795 0 0.0098939289028088795 0.0096550150742557017 0 0 0 -0.0013066080544901076 -0.023020877356441663 0.0087354106548954494 0 0.0087354106548954494 0.011719984782240706 0 0 0 -0.0028252231435502428 -0.011383916782491038 0.0038270498856984303 0 0.0038270498856984303 0.022957447869199621 0 0 0 0.0028933827716771249 -0.020564506522981627 -0.0015194217647881772 0 -0.0015194217647881772 0.012428435810990873 0 0 0 -0.0020340176779976987 0.033486536310526817 -0.0016311633357124905 0 -0.0016311633357124905 0.02151318777725722 0 0 0 0.013749931021946014 -0.0040215461620970519 0.0067236500710582819 0 0.0067236500710582819 0.016736434858352162 0 0 0 0.0031787221740637722 0.0092784033052372566 0.00084416724361005557 0 0.00084416724361005557 0.017830705376070011 0 0 0 0.0067772771703268064 0.013445375550321201 0.0029126529122586037 0 0.0029126529122586037 0.029116326177546781 0 0 0 0.010640425431966999 0.027308808278623586 -0.0054306526784846584 0 -0.0054306526784846584 0.031304425948877723 0 0 0 0.014653308556875327 0.010126491934827675 -0.0011262406333370223 0 -0.0011262406333370223 0.042916959923216813 0 0 0 0.01326086296451115 0.0084761003392483381 -0.011092177735108524 0 -0.011092177735108524 0.040732629540424448 0 0 0 0.01230218246991821 0.016807955231117659 -0.015904032040276933 0 -0.015904032040276933 0.035851435745578669 0 0 0 0.013164847744174112 0.030743089257601747 -0.0081165839882471613 0 -0.0081165839882471613 0.064585346901036123 0 0 0 0.023832109039659433 -0.016607476329057097 -0.0060253082845049821 0 -0.0060253082845049821 0.026803109420425908 0 0 0 0.0025489082728421819 0.0018740256568774011 -0.0045282535466157348 0 -0.0045282535466157348 0.021355910643525294 0 0 0 0.0058074840751006773 0.0012423888850370268 -0.01507198295874479 0 -0.01507198295874479 0.025737083300698349 0 0 0 0.0067448680464338717 -0.020937229655150491 -0.0026210386973713456 0 -0.0026210386973713456 0.014435932817547514 0 0 0 -0.0016253242094007303 -0.024608801228549422 -0.012080677810205387 0 -0.012080677810205387 0.016316339790467982 0 0 0 -0.0020731153595203236 -0.041005828339522044 -0.0061134464146186118 0 -0.0061134464146186118 0.011625321283511791 0 0 0 -0.007345126764002563 -0.048968430845963064 0.0017356830521305655 0 0.0017356830521305655 0.0068872177130469558 0 0 0 -0.010520303283229039 -0.057344772037418862 -0.0099119932051870696 0 -0.0099119932051870696 0.0096465640074511472 0 0 0 -0.011924552007491901 -0.066625545691054833 0.00018988628686084086 0 0.00018988628686084086 0.0042269588130987024 0 0 0 -0.015599646719488991 -0.097860749752709156 -0.00149286383891023 0 -0.00149286383891023 0.0049598123216440526 0 0 0 -0.023225234357766314 -0.072115073295835011 0.0016360372417389968 0 0.0016360372417389968 0.004126271703543849 0 0 0 -0.016997200398072801 -0.0696430806038211 -0.0032495043146947879 0 -0.0032495043146947879 0.0046589227138869593 0 0 0 -0.016246039472483542 -0.075232049305007126 -0.0015569506484487405 0 -0.0015569506484487405 0.0012033273273068246 0 0 0 -0.018507180494425103 -0.062720525129390983 0.0061701492959398557 0 0.0061701492959398557 0.0039647269341712144 0 0 0 -0.014688949548804911 -0.10051321833192867 0.0025251999070482201 0 0.0025251999070482201 0.0022222321273194234 0 0 0 -0.02457274655115229 -0.07400735047088243 0.0065878098676910718 0 0.0065878098676910718 0.0031643885047660802 0 0 0 -0.017710740491529084 -0.048043165015822592 0.0085898122089217502 0 0.0085898122089217502 0.0063995257101173986 0 0 0 -0.010410909826426298 -0.034692320582156932 0.0054357233867861898 0 0.0054357233867861898 0.010676358911430262 0 0 0 -0.0060039904176816539 -0.050557016012297125 -0.00094009580092646594 0 -0.00094009580092646594 0.0066418544165203382 0 0 0 -0.010978790398944206 0.029858372370245419 -0.009600643525020075 0 -0.009600643525020075 0.05275032943996065 0 0 0 0.020652175452551512 0.030080164967078112 -0.010852568096992476 0 -0.010852568096992476 0.043918931458972257 0 0 0 0.018499774106512587 0.028887309275527011 -0.011231113292318476 0 -0.011231113292318476 0.038845380030159415 0 0 0 0.016933172326421608 0.026843966458932417 -0.0077862418930404256 0 -0.0077862418930404256 0.047148092989626272 0 0 0 0.018498014862139672 0.031135189706920152 -0.0026348803524550027 0 -0.0026348803524550027 0.053680403887042268 0 0 0 0.0212038983984906 0.033074732455000651 -0.003824305315920859 0 -0.003824305315920859 0.059910102371455096 0 0 0 0.023246208706613945 0.029166702635540314 -0.0096878174508958775 0 -0.0096878174508958775 0.059313222240475971 0 0 0 0.022119981219004086 0.028409689539325801 -0.0087116038330867715 0 -0.0087116038330867715 0.055967286397297575 0 0 0 0.021094243984155846 0.033757057534283291 -0.0093302571498005138 0 -0.0093302571498005138 0.057870073728332236 0 0 0 0.022906782815653878 0.032407340267809961 -0.0082294523461194438 0 -0.0082294523461194438 0.053804327670512464 0 0 0 0.021552916984580603 0.024752582201743388 -0.0066894099742428464 0 -0.0066894099742428464 0.051571070733450103 0 0 0 0.019080913233798381 0.028705510445296012 -0.0099882993641815885 0 -0.0099882993641815885 0.056806055195923688 0 0 0 0.021377891410304925 0.025892259847045743 -0.01176885265136636 0 -0.01176885265136636 0.053090244669788109 0 0 0 0.019745626129208441 0.027347427811825545 -0.013951251419781943 0 -0.013951251419781943 0.056859431934547677 0 0 0 0.021051714936593302 0.029859745278053053 -0.0077916207289054074 0 -0.0077916207289054074 0.067550206856842737 0 0 0 0.024352488033723953 0.064660986760620168 -0.04300684221181339 0 -0.04300684221181339 0.10237001574514012 0 0 0 0.041757750626440049 0.023348219065787698 -0.023446430487305867 0 -0.023446430487305867 0.065120984572716423 0 0 0 0.02211730090962602 0.058629840913077498 -0.029124697864076274 0 -0.029124697864076274 0.05673992870559437 0 0 0 0.028842442404667983 0.023432575826949902 -0.013954592809255414 0 -0.013954592809255414 0.057306074593179074 0 0 0 0.020184662605032218 0.065775192748861372 -0.004785205464203815 0 -0.004785205464203815 0.094297521372062765 0 0 0 0.040018178530231013 0.049445170504419919 -0.016571788958371303 0 -0.016571788958371303 0.052148297847313951 0 0 0 0.025398367087933457 0.092289706375521613 -0.021976186715601614 0 -0.021976186715601614 0.064806500386614924 0 0 0 0.03927405169053412 0.045927792339992939 -0.015376407027545266 0 -0.015376407027545266 0.048654020643292988 0 0 0 0.023645453245821478 0.033806611082011225 -0.0018411831198888035 0 -0.0018411831198888035 0.050041774006491652 0 0 0 0.020962096272125703 0.058282823655707916 -0.010482812028160024 0 -0.010482812028160024 0.038385764520975113 0 0 0 0.02416714704417075 0.030756708269271987 -0.0049038445589969365 0 -0.0049038445589969365 0.030613917069641269 0 0 0 0.015342656334728311 0.039826898836176308 -0.0062442770817348926 0 -0.0062442770817348926 0.023000298472894212 0 0 0 0.015706799327267623 0.035205317900197146 -0.019216785599546024 0 -0.019216785599546024 0.049502433143479782 0 0 0 0.021176937760919244 0.030965744557304588 -0.017538743337330617 0 -0.017538743337330617 0.038189632054777448 0 0 0 0.017288844153020504 0.040201371199073355 -0.016343325013625773 0 -0.016343325013625773 0.040921506993685228 0 0 0 0.020280719548189649 0.029307517051730757 -0.0097041279134390708 0 -0.0097041279134390708 0.023221517240066977 0 0 0 0.013132258572949437 0.03210657347970973 -0.011499700156093248 0 -0.011499700156093248 0.038723078410898143 0 0 0 0.017707412972651965 0.030094723304125017 -0.0087880793739385475 0 -0.0087880793739385475 0.025101179306325036 0 0 0 0.013798975652612514 0.027870256364242695 -0.0017608281166048116 0 -0.0017608281166048116 0.021807386253406981 0 0 0 0.012419410654412412 0.026603738212173295 -0.0017012984840230408 0 -0.0017012984840230408 0.013811531502675042 0 0 0 0.010103817428712081 0.025314562834004441 -0.0039002275633596636 0 -0.0039002275633596636 0.020998969562067361 0 0 0 0.011578383099017946 0.030438079015757 -0.0047744020070437238 0 -0.0047744020070437238 0.016802917346893279 0 0 0 0.011810249090662573 0.024332223071788436 2.1223346310226057e-05 0 2.1223346310226057e-05 0.017206986742505065 0 0 0 0.010384802453573372 0.016236599008068529 0.0045999413614190056 0 0.0045999413614190056 0.011582698633312856 0 0 0 0.0069548244103453463 0.022502304535226461 -0.0010968008681041695 0 -0.0010968008681041695 0.010758401620734784 0 0 0 0.0083151765389903095 0.018868602219364494 0.0049394172295131487 0 0.0049394172295131487 0.0087186950554559682 0 0 0 0.0068968243187051172 0.015752658213588004 0.0031841853917515045 0 0.0031841853917515045 0.0055761880408547321 0 0 0 0.0053322115636106823 0.010839496385797124 0.008202327717509502 0 0.008202327717509502 0.0044825950926177388 0 0 0 0.0038305228696037179 0.02755690118960295 -0.0023636643520765104 0 -0.0023636643520765104 0.01571492007534004 0 0 0 0.010817955316235743 0.026855438188604482 -0.0030060256486968088 0 -0.0030060256486968088 0.014255533125140794 0 0 0 0.010277742828436312 0.023742277982251418 0.0017077993782281199 0 0.0017077993782281199 0.012189754241475208 0 0 0 0.0089830080559316575 0.022183990883558748 0.0008176398956300083 0 0.0008176398956300083 0.010081867496949242 0 0 0 0.0080664645951269986 0.026551450897006446 -0.0012061315231537829 0 -0.0012061315231537829 0.017345944036668982 0 0 0 0.010974348733418857 0.02711966896436065 0.003433613276644357 0 0.003433613276644357 0.011176800991463254 0 0 0 0.009574117488955973 0.031562393401124759 0.0029765022920008148 0 0.0029765022920008148 0.017718810283981097 0 0 0 0.012320300921276466 0.032716003032565666 0.0018997817927008526 0 0.0018997817927008526 0.017257085651954988 0 0 0 0.01249327217113016 0.029950673345381089 -0.0023568674636212199 0 -0.0023568674636212199 0.020994815376447141 0 0 0 0.012736372180457041 0.029762220339039212 -0.0021634324430297456 0 -0.0021634324430297456 0.025321454345000161 0 0 0 0.013770918671009833 0.027846938559376165 -0.0040110249441611505 0 -0.0040110249441611505 0.023054884488053741 0 0 0 0.012725455761857457 0.032085324848817057 -0.0043294954610782806 0 -0.0043294954610782806 0.035907263939714378 0 0 0 0.016998147197132871 0.03181161802862268 -0.00014696035635637303 0 -0.00014696035635637303 0.02762140350967816 0 0 0 0.014858255384575218 0.027838252967326518 -0.0060671632678910084 0 -0.0060671632678910084 0.033574236107716392 0 0 0 0.015353122268760724 0.0304601326367713 -0.0074116890892387821 0 -0.0074116890892387821 0.042500872222902747 0 0 0 0.018240251214918523 0.028131517114693153 -0.0093119045729254286 0 -0.0093119045729254286 0.030487202808274133 0 0 0 0.014654679980741811 0.036868801210302733 0.0012481242447802592 0 0.0012481242447802592 0.057322120761770512 0 0 0 0.023547730493018323 0.02969617107878831 -0.0023164348882135123 0 -0.0023164348882135123 0.040014282038477608 0 0 0 0.017427613279316467 0.032539966379683767 -0.003843363640954809 0 -0.003843363640954809 0.048165457116989149 0 0 0 0.020176355874168238 0.032807948025946214 -0.0004365796722156663 0 -0.0004365796722156663 0.030460217002017967 0 0 0 0.01581704125699104 0.035904763314777044 0.002357550470901951 0 0.002357550470901951 0.040399188151035222 0 0 0 0.019075987866453072 0.035607470404155357 0.0024321697061418261 0 0.0024321697061418261 0.039480563413637856 0 0 0 0.018772008454448295 0.036564582123508813 0.0034451471080277733 0 0.0034451471080277733 0.024167371099105925 0 0 0 0.015182988305653684 0.035996278680564597 0.0043105900113812002 0 0.0043105900113812002 0.024571010081998843 0 0 0 0.015141822190640856 0.040070638209805748 0.0066553243331618382 0 0.0066553243331618382 0.019882753170754316 0 0 0 0.014988347845140021 0.038445283497387073 0.0063175334729234159 0 0.0063175334729234159 0.012678534186852133 0 0 0 0.012780954421059792 0.035081551649144505 0.0040253766341747429 0 0.0040253766341747429 0.0073291838447689245 0 0 0 0.010602683873478343 0.034642368039689911 0.0053261325966560916 0 0.0053261325966560916 0.013742293344454374 0 0 0 0.012096165346036077 0.036350910192438905 0.0037876981657218225 0 0.0037876981657218225 0.014815262070197338 0 0 0 0.012791543065659064 0.028916793145142363 0.0012991322769497571 0 0.0012991322769497571 0.012439119424782919 0 0 0 0.010338978142481317 0.028006218737121662 0.0048261059122391052 0 0.0048261059122391052 0.0076041787284837313 0 0 0 0.0089025993664013439 0.031697113656803541 0.0048709837487557603 0 0.0048709837487557603 0.007973433382097276 0 0 0 0.0099176367597251999 0.032621038886072741 0.0045036800080165782 0 0.0045036800080165782 0.012363382742681298 0 0 0 0.01124610540718851 0.032719392231717548 0.0045634070459203927 0 0.0045634070459203927 0.0052970683195906684 0 0 0 0.0095041151378270558 0.032139214629413423 0.0061403009565340078 0 0.0061403009565340078 0.0036693552814705301 0 0 0 0.008952142477720984 0.027078463369340881 0.0057354104874408011 0 0.0057354104874408011 0.003989698366187823 0 0 0 0.0077670404338821761 0.035736406083306929 0.0058212058268022702 0 0.0058212058268022702 0.0031165649268144226 0 0 0 0.0097132427525303371 0.035620751685867376 0.0042670224262574361 0 0.0042670224262574361 0.0033305777235218721 0 0 0 0.0097378323523473163 0.039430597072640669 0.0053890030467061674 0 0.0053890030467061674 0.0049259734901952925 0 0 0 0.011089142640708989 0.037474660816023353 0.004127138326294741 0 0.004127138326294741 0.0049268814224119398 0 0 0 0.010600385559608828 0.03558976933107974 0.0057316940988688617 0 0.0057316940988688617 0.0071397173427829369 0 0 0 0.010682371668465675 0.0099520355898267167 0.0071367394707647254 0 0.0071367394707647254 0.00576371540002674 0 0 0 0.0039289377474633642 0.017282916455848653 0.005767839967741906 0 0.005767839967741906 0.0027932715315947369 0 0 0 0.0050190469968608483 0.0098497273104841895 0.0079432330964768864 0 0.0079432330964768864 0.0027114296187577755 0 0 0 0.0031402892323104887 0.021641326737563742 0.0047858808283074827 0 0.0047858808283074827 0.0020271667172935479 0 0 0 0.0059171233637143241 0.018515976883749695 0.0059108044737009643 0 0.0059108044737009643 0.0072064416066389553 0 0 0 0.0064306046225971643 0.022714534075488825 0.0050149071602895688 0 0.0050149071602895688 0.0060135339604308162 0 0 0 0.0071820170089799112 0.024997480881578181 0.0021408859578800161 0 0.0021408859578800161 0.006730059030520881 0 0 0 0.007931884978024769 0.024540829457954966 0.0063207275678035975 0 0.0063207275678035975 0.0084584461687977203 0 0 0 0.0082498189066881698 0.026635336663370129 0.0044498012422061551 0 0.0044498012422061551 0.0031894065753862721 0 0 0 0.0074561858096890941 0.02270142061010998 0.005053070573069765 0 0.005053070573069765 0.0039645971950068269 0 0 0 0.0066665044512792017 0.026446194425122627 0.0071883085781154175 0 0.0071883085781154175 0.0020053622787206179 0 0 0 0.0071128891759608083 0.019608093833109127 0.0076472838169034454 0 0.0076472838169034454 0.0041732352079965063 0 0 0 0.0059453322602764057 0.01840040324812027 0.0070378022299522188 0 0.0070378022299522188 0.0013745532145855305 0 0 0 0.0049437391156764432 0.010656483570441513 0.0077422961937275853 0 0.0077422961937275853 0.0015560831070684754 0 0 0 0.0030531416693774984 0.0091157182896938384 0.0099657585057870667 0 0.0099657585057870667 0.00034942243008161122 0 0 0 0.0023662851799438629 0.0095698081190222391 0.0081292146408715685 0 0.0081292146408715685 0.0010758150489017723 0 0 0 0.0026614057919810037 0.0022414040834296926 0.010371254113288663 0 0.010371254113288663 0.00049127769041729108 0 0 0 0.0006831704434617468 0.0064197310435690604 0.011639208017547448 0 0.011639208017547448 -0.00012884314911458929 0 0 0 0.0015727219736136181 0.0012297612109588504 0.0097988631817237173 0 0.0097988631817237173 0.0012463789644280854 0 0 0 0.00061903504384673222 0.0073109969277696338 0.0081981633724747503 0 0.0081981633724747503 -5.667970045863252e-05 0 0 0 0.0018135793068277464 0.014182526013711092 0.0098774300592792512 0 0.0098774300592792512 0.00083667162995883053 0 0 0 0.0037547994109174811 0.012948135690079543 0.0085694904379357648 0 0.0085694904379357648 0.0011625349811517152 0 0 0 0.0035276676678078142 0.01525499234582579 0.010416905214629906 0 0.010416905214629906 0.0011075728586817856 0 0 0 0.0040906413011268941 0.0195265505535023 0.0068502713042660739 0 0.0068502713042660739 0.0011280788765532235 0 0 0 0.0051636573575138782 0.020640927586496053 0.0076878768749635198 0 0.0076878768749635198 0.0027481410061984887 0 0 0 0.0058472671481736363 0.025537141559191678 0.0081958694975182381 0 0.0081958694975182381 0.0012004574068820804 0 0 0 0.0066843997415184384 0.020648105655798256 0.0073856584010174005 0 0.0073856584010174005 0.0040537779000145158 0 0 0 0.0061754708889531912 0.017848788449994754 0.010932483413580775 0 0.010932483413580775 0.0024568826890282169 0 0 0 0.0050764177847557428 0.015805874038447836 0.0093668466182205146 0 0.0093668466182205146 0.0052685726927969578 0 0 0 0.0052686116828111976 0.0099223674341106637 0.01277205721463434 0 0.01277205721463434 0.00088868125439838311 0 0 0 0.002702762172127263 0.0065193466941087831 0.010341502715464742 0 0.010341502715464742 0.0021710425317116489 0 0 0 0.0021725973064551083 0.0010705875301461314 0.013835915130997146 0 0.013835915130997146 -0.0011507713200925862 0 0 0 -2.0045947486611523e-05 0.034651337918833909 0.0044206660339280949 0 0.0044206660339280949 0.0037116680799165851 0 0 0 0.0095907514996876296 0.035820727506059594 0.00507006127974193 0 0.00507006127974193 0.0029967213993376991 0 0 0 0.0097043622263493223 0.03144454829016062 0.0056548878202177504 0 0.0056548878202177504 0.0032379709059986925 0 0 0 0.00867062979903983 0.031262506841777782 0.0062949475279848247 0 0.0062949475279848247 0.0018593430423464782 0 0 0 0.0082804624710310672 0.02655240990733853 0.0065383694214527907 0 0.0065383694214527907 0.0036357078269713839 0 0 0 0.007547029433577478 0.029532236318279698 0.006496831767440734 0 0.006496831767440734 0.0037125302407117478 0 0 0 0.0083111916397478613 0.023828888021513818 0.0077930179978542014 0 0.0077930179978542014 0.0079386587090729197 0 0 0 0.0079418866826466827 0.023968897625959606 0.0089196091008888045 0 0.0089196091008888045 0.0050281180125569726 0 0 0 0.0072492539096291452 0.028352601627274574 0.006635243795999844 0 0.006635243795999844 0.0094497807373800924 0 0 0 0.0094505955911636675 0.028668636450426846 0.0065623486546911077 0 0.0065623486546911077 0.0053477170895846488 0 0 0 0.008504088385002875 0.034063246539609446 0.0042474423880016895 0 0.0042474423880016895 0.0062083397739891308 0 0 0 0.010067896578399642 0.031780100079289025 0.0055040813078186335 0 0.0055040813078186335 0.003345102155045401 0 0 0 0.0087813005585836105 0.030788783577975223 0.0051232221409903958 0 0.0051232221409903958 0.0058434590511418638 0 0 0 0.0091580606572792753 0.031320743887870726 0.0050126916212254492 0 0.0050126916212254492 0.010439134901679232 0 0 0 0.01043996969738749 0.033077534354062604 0.0027875596264548817 0 0.0027875596264548817 0.0051362165361599843 0 0 0 0.009553437722555647 0.035234375187715244 0.0010717638283530815 0 0.0010717638283530815 0.011738142919945661 0 0 0 0.011743129526915226 0.032481055612478299 8.0329708504695094e-06 0 8.0329708504695094e-06 0.0040533757712327059 0 0 0 0.0091336078459277499 0.037315350625614238 2.2346415466663154e-06 0 2.2346415466663154e-06 0.0053543677057859111 0 0 0 0.010667429582850036 0.037170366992756686 0.0018370694196638972 0 0.0018370694196638972 0.003977407399120704 0 0 0 0.010286943597969354 0.038126842311448181 0.0026740393772498317 0 0.0026740393772498317 0.0032866634466449766 0 0 0 0.010353376439523295 0.036438355051607287 0.0010946780632012803 0 0.0010946780632012803 0.0020263418836948249 0 0 0 0.0096161742338255283 0.040237318850151714 0.0013972082561002574 0 0.0013972082561002574 0.0033067268374850729 0 0 0 0.0108860114219092 0.038013285699851559 0.0024139905596208661 0 0.0024139905596208661 0.0014125119406814554 0 0 0 0.00985644941013325 0.038845127412153936 -0.00029987253690053474 0 -0.00029987253690053474 -0.00018183960732382279 0 0 0 0.009665821951207524 0.035681831340179632 -0.0039322253327252459 0 -0.0039322253327252459 -0.0011836615445217323 0 0 0 0.008624542448914474 0.037490002722251295 -0.0015005579456885726 0 -0.0015005579456885726 0.0023410764485276587 0 0 0 0.009957769792694738 0.036094209215241237 -0.0013558624375598182 0 -0.0013558624375598182 0.0027267427332128111 0 0 0 0.0097052379871135092 0.03457807312223532 -0.0015310097545822177 0 -0.0015310097545822177 0.011527869223618816 0 0 0 0.011526485586463533 0.033662977936175759 -0.0038911537489292537 0 -0.0038911537489292537 0.011212951048011248 0 0 0 0.011218982246046753 0.031597465998940963 -0.0035854925524769206 0 -0.0035854925524769206 0.0044007426221640287 0 0 0 0.0089995521552762494 0.02791084855476848 -0.0073977806119155777 0 -0.0073977806119155777 0.009301555140386079 0 0 0 0.0093031009237886392 0.033599567369203769 -0.0043975248338843824 0 -0.0043975248338843824 0.0038709833332386777 0 0 0 0.0093676376756106107 0.027187577730995026 -0.0076542626031587974 0 -0.0076542626031587974 0.0012414614598106888 0 0 0 0.0071072597977014295 0.017264863486081722 -0.010569099496000461 0 -0.010569099496000461 0.0057501660502832152 0 0 0 0.0057537573840912336 0.019185758256583627 -0.012340028509051269 0 -0.012340028509051269 -0.0012149184115695169 0 0 0 0.0044927099612535274 0.0090208874838084534 -0.015660424448653586 0 -0.015660424448653586 -0.0027722717596245644 0 0 0 0.0015621539310459714 0.018610633308808869 -0.012103938434706201 0 -0.012103938434706201 -0.0044687563442005959 0 0 0 0.0035354692411520717 0.021884064667602791 -0.0084608198519230404 0 -0.0084608198519230404 -0.0017367000562715021 0 0 0 0.0050368411528328248 0.026951567722338816 -0.0074133768134839913 0 -0.0074133768134839913 0.00059343561980626644 0 0 0 0.0068862508355362678 0.014711567342665988 -0.010549678002911969 0 -0.010549678002911969 -0.00089839013691501296 0 0 0 0.0034532943014377385 0.027132041934759939 -0.0079450270778389752 0 -0.0079450270778389752 -0.0016703223866350279 0 0 0 0.0063654298870312251 0.034922338588803628 -0.0048282852463585168 0 -0.0048282852463585168 -0.0028089029846788977 0 0 0 0.0080283589010311865 0.03649835551936273 -0.0024703916676701862 0 -0.0024703916676701862 0.00069010259246225607 0 0 0 0.0092971145279562451 0.037445017217753312 -0.0030692793225955972 0 -0.0030692793225955972 -0.0002094269723817814 0 0 0 0.0093088975613428871 0.037298689673808783 -0.002996031673933355 0 -0.002996031673933355 -0.00088244017502229783 0 0 0 0.0091040623746966257 0.045306815637018924 -0.0003716459949055389 0 -0.0003716459949055389 0.00074018136629729059 0 0 0 0.011511749250829062 0.03073919575076069 -0.0081091116898615867 0 -0.0081091116898615867 -0.003211350101450676 0 0 0 0.0068819614123275009 0.023669200146933696 -0.011298294076679878 0 -0.011298294076679878 -0.0028956781588425629 0 0 0 0.005193380497022785 0.030018583039702017 -0.0073755302495032288 0 -0.0073755302495032288 -0.0031344202243070024 0 0 0 0.0067210407038487546 0.032681854710697948 -0.004310926307949374 0 -0.004310926307949374 -4.3580763267636255e-05 0 0 0 0.0081595684868575775 0.018893707994055573 -0.010314449419095055 0 -0.010314449419095055 -0.0036521997766917787 0 0 0 0.0038103770543409521 0.030946511401163414 -0.011198649110969362 0 -0.011198649110969362 -0.0027393649158229116 0 0 0 0.0070517866213351266 0.036569264048875103 -0.0075167456409852128 0 -0.0075167456409852128 0.0006228841169729632 0 0 0 0.0092980370414620147 0.035194252556590679 -0.0063478733928703556 0 -0.0063478733928703556 0.0017012060579842073 0 0 0 0.009223864653643719 0.049707318517004252 -0.0014630302447084624 0 -0.0014630302447084624 0.0062275926068840167 0 0 0 0.013983727780972073 0.037546103085250915 -0.0092370854275688405 0 -0.0092370854275688405 0.0046273422937199108 0 0 0 0.010543361344742704 0.037565656624410956 -0.0092206938754292207 0 -0.0092206938754292207 0.0067094662347324668 0 0 0 0.011068780714785856 0.042489006549657468 0.00044772824199038562 0 0.00044772824199038562 0.0039466596288675508 0 0 0 0.01160891654463125 0.043423218137770024 -0.004917888801980623 0 -0.004917888801980623 0.00095967337650482761 0 0 0 0.011095722878568708 0.049517221788698461 0.00060494047362255328 0 0.00060494047362255328 0.0044985115919679124 0 0 0 0.013503933345166601 0.056859385861218151 0.0054307180238795452 0 0.0054307180238795452 0.012525342578086667 0 0 0 0.017346182109826205 0.04862280064312427 0.0057214919332307665 0 0.0057214919332307665 0.011099207746511457 0 0 0 0.014930502097408923 0.051567993916717979 0.0042019664960743983 0 0.0042019664960743983 0.013413843288702123 0 0 0 0.016245459301355007 0.046617643149415224 0.0028183213961216237 0 0.0028183213961216237 0.0051149223027603915 0 0 0 0.012933141363043904 0.046246061420837842 0.0063572469154700249 0 0.0063572469154700249 0.0089222326527268331 0 0 0 0.013792073518391167 0.048707436273033235 0.0083051740056386547 0 0.0083051740056386547 0.017994721149657899 0 0 0 0.016675539355672789 0.045020494676716219 0.0047910750796744802 0 0.0047910750796744802 0.010958786706896758 0 0 0 0.013994820345903242 0.044090594765201288 0.0077216218957866086 0 0.0077216218957866086 0.016441698259455861 0 0 0 0.015133073256164295 0.039870745397665733 0.005660460040133538 0 0.005660460040133538 0.0087790225215433962 0 0 0 0.012162441979802284 0.039438902995857929 0.0047150495138182221 0 0.0047150495138182221 0.0088436496986020394 0 0 0 0.012070638173614992 0.042065503275751981 0.0035307110285929498 0 0.0035307110285929498 0.0051474599305781858 0 0 0 0.011803240801582538 0.043254396168611924 0.0047146737052870917 0 0.0047146737052870917 0.0053022412489788836 0 0 0 0.0121391593543977 0.038729427320603152 0.0031744334104822766 0 0.0031744334104822766 0.0027595825652675507 0 0 0 0.010372252471467674 0.042304420153242039 0.0029434917513342933 0 0.0029434917513342933 0.0029465535818984181 0 0 0 0.011312743433785117 0.039875562332198217 0.0013642405214051951 0 0.0013642405214051951 0.0014705114647472076 0 0 0 0.010336518449236361 0.041417183808184654 0.00092184326439872849 0 0.00092184326439872849 0.0015190723317110991 0 0 0 0.010734064034973942 0.040718336611986976 -0.0020979081540863525 0 -0.0020979081540863525 -0.00010841188303221732 0 0 0 0.010152481182238694 0.04265581902659462 0.0027108310059714359 0 0.0027108310059714359 0.0043178708376397489 0 0 0 0.011743422466058587 0.045136861315743133 0.002733725879288391 0 0.002733725879288391 0.002619095352458261 0 0 0 0.011938989167050336 -0.07651989764171066 -0.0042957808642152357 0 -0.0042957808642152357 -0.0023942189293528543 0 0 0 -0.019728529142765874 -0.054533921968395793 -0.012190787602231329 0 -0.012190787602231329 -0.0011793121121562306 0 0 0 -0.013928308520138009 -0.061502560641636034 -0.0056643575379328372 0 -0.0056643575379328372 2.5274984455543603e-06 0 0 0 -0.015375008285797621 -0.053311629679549548 -0.0088031342397707647 0 -0.0088031342397707647 0.0045463003912028493 0 0 0 -0.012191332322086672 -0.050889128131112529 -0.0054081985189285975 0 -0.0054081985189285975 0.0035455890631524399 0 0 0 -0.011835884766990018 -0.052479699370381154 -0.0026179556451837033 0 -0.0026179556451837033 -0.0058329090844413522 0 0 0 -0.014578152113705622 -0.047581132361730831 -0.003528252739074084 0 -0.003528252739074084 -0.015828205001450442 0 0 0 -0.015852334340795318 -0.046589727468331836 -0.0059167494049972716 0 -0.0059167494049972716 -0.0070852600479940769 0 0 0 -0.013418746879081477 -0.045197187981572066 -0.010988826313899077 0 -0.010988826313899077 -0.0043278435781447105 0 0 0 -0.012381257889929194 -0.039457915250496647 -0.011188223268931227 0 -0.011188223268931227 -0.0024655673146902254 0 0 0 -0.01048087064129672 -0.034216886609361619 -0.011352327304009768 0 -0.011352327304009768 -0.011413998827826295 0 0 0 -0.011407721359296977 -0.034208080368873177 -0.01135713529692336 0 -0.01135713529692336 -0.011386278406714112 0 0 0 -0.011398589693896823 -0.037952562380619274 -0.01355451954589959 0 -0.01355451954589959 -0.0042303192575759777 0 0 0 -0.010545720409548815 -0.025344265453752117 -0.013807131712807395 0 -0.013807131712807395 -0.0010404189615275047 0 0 0 -0.006596171103819902 -0.042537120933539285 -0.012706745551545386 0 -0.012706745551545386 0.001381742223288733 0 0 0 -0.010288844677562642 -0.060464923729334083 -0.012375797949740293 0 -0.012375797949740293 -0.0011938773240725183 0 0 0 -0.015414700263351656 -0.023872716741055115 -0.016682830775647001 0 -0.016682830775647001 0.00029464033567440373 0 0 0 -0.0058945191013451814 -0.044799857704594756 -0.014936082616312846 0 -0.014936082616312846 -0.0031171534761686714 0 0 0 -0.011979252795190857 -0.020665576242983808 -0.013574549990891905 0 -0.013574549990891905 -0.002204039395590893 0 0 0 -0.0057174039096436783 -0.016392452434374889 -0.014123419233132017 0 -0.014123419233132017 -0.0044603961683784762 0 0 0 -0.0052132121506883386 -0.021097116390814786 -0.017811453051502384 0 -0.017811453051502384 -0.0029157713305889739 0 0 0 -0.0060032219303509347 -0.019144401950916858 -0.016622447518569377 0 -0.016622447518569377 -0.0017216256626418555 0 0 0 -0.0052165069033896783 -0.020577840360851005 -0.015866480252162567 0 -0.015866480252162567 -0.0056118214228915008 0 0 0 -0.006547415445935627 -0.0083957265191750893 -0.013524408443188319 0 -0.013524408443188319 -0.0028075899114973434 0 0 0 -0.0028008291076681083 -0.0074149329671335997 -0.016281160215188044 0 -0.016281160215188044 -0.0042355238274022211 0 0 0 -0.0029126141986339556 -0.0031288576103378801 -0.012572512888430407 0 -0.012572512888430407 -0.0012052141965436351 0 0 0 -0.0010835179517203809 -0.0038055632586943347 -0.017604359512917934 0 -0.017604359512917934 -0.003180959932267538 0 0 0 -0.0017466307977404682 0.0049699201940699954 -0.012794970135924748 0 -0.012794970135924748 0.0016585123867452764 0 0 0 0.0016571081452038175 0.012642603738136086 -0.010329177702284994 0 -0.010329177702284994 6.0297202773612092e-05 0 0 0 0.0031757252352274242 0.0058072489417370851 -0.016412200173745235 0 -0.016412200173745235 -0.0040413587305559856 0 0 0 0.00044147255279527314 0.0010560286324034652 -0.015532241558605791 0 -0.015532241558605791 -0.0041221115807693401 0 0 0 -0.00076652073709146916 0.0019374337931002401 -0.012152235410971733 0 -0.012152235410971733 -0.0031449201969875277 0 0 0 -0.00030187160097182352 0.012764031056695591 -0.015288557443591049 0 -0.015288557443591049 -0.0061707579179131195 0 0 0 0.0016483182846956136 0.019443506734794821 -0.01140692319354733 0 -0.01140692319354733 -0.0027423016107029985 0 0 0 0.0041753012810229612 0.002849302661465573 -0.01736355271176904 0 -0.01736355271176904 -0.004676004221012206 0 0 0 -0.00045667538988665608 0.019780377299643874 -0.014104725851401316 0 -0.014104725851401316 -0.0011287734828180976 0 0 0 0.004662900954206445 0.0059161288111755387 -0.013209093232853731 0 -0.013209093232853731 0.0043955475238759128 0 0 0 0.0025779190837628618 -0.0014793392999333786 -0.019101997741594864 0 -0.019101997741594864 -0.00055158869437719332 0 0 0 -0.00050773199857764373 0.017673546092703878 -0.012205285092216389 0 -0.012205285092216389 0.001319029214362985 0 0 0 0.0047481438267667191 -0.001394886181644385 -0.017398114002061951 0 -0.017398114002061951 0.00019866194800862921 0 0 0 -0.00029905605840893981 0.0031887229352915241 -0.020393955545238738 0 -0.020393955545238738 0.0040754681633153097 0 0 0 0.0018160477746517073 -0.022435017768815107 -0.016742704267373579 0 -0.016742704267373579 -0.0020519307833933124 0 0 0 -0.0061217371380521083 -0.02172654358867528 -0.019258727562354458 0 -0.019258727562354458 -0.0014506737698142674 0 0 0 -0.0057943043396223824 -0.023514418714970942 -0.015680341431197994 0 -0.015680341431197994 0.0002539905949361515 0 0 0 -0.0058151070300086916 -0.0010395533822290769 -0.014911318371434678 0 -0.014911318371434678 -0.0004762289098425021 0 0 0 -0.00037894557301789561 -0.014525386245160147 -0.017629589299764874 0 -0.017629589299764874 -0.0040234588280313802 0 0 0 -0.0046372112682978792 -0.039443043378661315 -0.016237472841243845 0 -0.016237472841243845 -0.0017957338173448627 0 0 0 -0.010309694299001549 -0.037749812652040228 -0.015451366919416039 0 -0.015451366919416039 0.0024638087519011781 0 0 0 -0.0088215009750347642 -0.051724723471316021 -0.01329306923310411 0 -0.01329306923310411 0.0020822055841205542 0 0 0 -0.012410629471798863 -0.039193469834054466 -0.020799863413728366 0 -0.020799863413728366 0.002446838435189197 0 0 0 -0.0091866578497163225 -0.047238653564863439 -0.014207368745218298 0 -0.014207368745218298 -0.00079061076715436843 0 0 0 -0.012007316083004451 -0.025090016068844732 -0.022721822849805534 0 -0.022721822849805534 0.0037300774793077515 0 0 0 -0.0053399846473842503 -0.047973810838452813 -0.018176690737028108 0 -0.018176690737028108 0.0051602839074578848 0 0 0 -0.010703381732748738 -0.077061551009190432 -0.012004868751512786 0 -0.012004868751512786 -0.001278837558450382 0 0 0 -0.019585097141910212 -0.080016777582642667 -0.013211725115770116 0 -0.013211725115770116 0.0027514386429644405 0 0 0 -0.019316334734919543 -0.10369112745251155 -0.0081964431585054287 0 -0.0081964431585054287 0.0024503537801852174 0 0 0 -0.025310193418081585 -0.073832676834426944 -0.006728151341093936 0 -0.006728151341093936 0.0024300869937086836 0 0 0 -0.017850647460179576 -0.090117242113591123 -0.0079097571897116335 0 -0.0079097571897116335 0.00086249825603073563 0 0 0 -0.022313685964390095 -0.054565450429406102 -0.015684845586410132 0 -0.015684845586410132 0.00087425792318361444 0 0 0 -0.013422798126555634 -0.073964113550856053 -0.0055070489624045186 0 -0.0055070489624045186 -0.0025373836432989734 0 0 0 -0.019125374298538764 -0.057876586104905453 -0.010866541319702248 0 -0.010866541319702248 0.0036547997441489831 0 0 0 -0.013555446590189119 -0.096427550965995978 -0.0061041259403808446 0 -0.0061041259403808446 0.012246459347560731 0 0 0 -0.021045272904608808 -0.14242884445630469 0.0017402404330699728 0 0.0017402404330699728 0.0088551992922470679 0 0 0 -0.033393411291014412 -0.090703032595062766 -0.013644129680653164 0 -0.013644129680653164 0.013369228959102197 0 0 0 -0.019333450908990177 -0.082664992835351891 0.00037723884567308907 0 0.00037723884567308907 0.012455971377604354 0 0 0 -0.017552255364436879 -0.12870768010686737 -0.0046102571595314501 0 -0.0046102571595314501 0.0084971820244688634 0 0 0 -0.030052624520599626 -0.11464827471441402 -0.0068898533252907488 0 -0.0068898533252907488 0.0043061473162680913 0 0 0 -0.027585531849536493 -0.077557885102844989 -0.0080847218688787914 0 -0.0080847218688787914 0.0050000645951076353 0 0 0 -0.018139455126934354 -0.085166790709399406 -0.0061534236189867558 0 -0.0061534236189867558 0.0066618835155049794 0 0 0 -0.019626226798473621 -0.081531793993629087 -0.015703630308968316 0 -0.015703630308968316 0.0099829252716315681 0 0 0 -0.017887217180499383 -0.046067769038393422 -0.015579410452266906 0 -0.015579410452266906 0.010236988583516737 0 0 0 -0.0089576951137191746 -0.048360651602742402 -0.016977941961443151 0 -0.016977941961443151 0.0045335724160348034 0 0 0 -0.010956769796676889 -0.030829581201713235 -0.015356600810146292 0 -0.015356600810146292 -0.00016787754670233995 0 0 0 -0.0077493646871038928 -0.042628211366778856 -0.021097050339714402 0 -0.021097050339714402 0.017786565178504576 0 0 0 -0.00621041154706857 -0.05815359131285875 -0.0085542967396089464 0 -0.0085542967396089464 0.00990960557717048 0 0 0 -0.012060996433922062 -0.041917336899771847 -0.0027696010818294148 0 -0.0027696010818294148 0.019435705484662613 0 0 0 -0.0056204078537773015 0.00017383045227856164 -0.014821707587556562 0 -0.014821707587556562 0.023768453405938889 0 0 0 0.0059855709645543487 0.0066668790565857089 -0.010785799678575972 0 -0.010785799678575972 0.041631648443826136 0 0 0 0.012074631875102965 0.022033893847609204 -0.020027486285747756 0 -0.020027486285747756 0.02095184748924514 0 0 0 0.010746435334213572 -0.031332830638664336 -0.011449370099198976 0 -0.011449370099198976 0.021788303349967342 0 0 0 -0.0023861318221742311 -0.0092358217661817517 -0.019752673651797871 0 -0.019752673651797871 0.013658790986331784 0 0 0 0.0011057423050375055 -0.033977057221184562 -0.022229781056477597 0 -0.022229781056477597 0.0099064080671645155 0 0 0 -0.0060176622885050116 -0.013921854527958678 -0.024043319038972531 0 -0.024043319038972531 0.0045971831131281088 0 0 0 -0.0023311678537076379 -0.0088493835784787186 -0.016228654356192359 0 -0.016228654356192359 0.0088402282586973989 0 0 0 -2.2888299453290711e-06 0.011978174553743597 -0.021321774624060048 0 -0.021321774624060048 0.010798380074118596 0 0 0 0.0056941386569655562 -0.0071822546852204558 -0.01471282458755397 0 -0.01471282458755397 0.016853314895454968 0 0 0 0.0024177650525586333 0.013947711326233101 -0.013254366223488183 0 -0.013254366223488183 0.012647772213503702 0 0 0 0.0066488708849342 0.037288788602624141 -0.018139369882754434 0 -0.018139369882754434 0.015197732236707368 0 0 0 0.013121630209832882 0.024164367948737359 -0.018282527587947003 0 -0.018282527587947003 0.0065858330984742836 0 0 0 0.007687550261802914 0.045433676894039585 -0.014037071208589266 0 -0.014037071208589266 0.011299944903999257 0 0 0 0.014183405449509717 0.025120009673089222 -0.010810735413453452 0 -0.010810735413453452 0.0075455575623113516 0 0 0 0.0081663918088501434 0.039447378402118718 -0.0080569342852683922 0 -0.0080569342852683922 0.021112609138404195 0 0 0 0.015139996885130732 0.063124694764801925 -0.015058187823417342 0 -0.015058187823417342 0.028103843779503798 0 0 0 0.022807134636076441 0.025526697462415884 -0.011509320373691248 0 -0.011509320373691248 0.029910308642797492 0 0 0 0.013859251526303344 0.055830559366476254 -0.016993009811174312 0 -0.016993009811174312 0.034898760290713954 0 0 0 0.022682329914297542 0.055830121792056632 -0.0054550934638182124 0 -0.0054550934638182124 0.045223394597138228 0 0 0 0.025263379097298706 0.087879636140748382 -7.4493380718007596e-05 0 -7.4493380718007596e-05 0.076558739180564606 0 0 0 0.041109593830328237 0.091887346904503953 -0.015909691741296875 0 -0.015909691741296875 0.061680434502216053 0 0 0 0.038391945351680015 0.044098867325049029 -0.0061364693831197775 0 -0.0061364693831197775 0.053496728423445994 0 0 0 0.024398898937123756 0.027702654033132643 -0.020497354123779357 0 -0.020497354123779357 0.054689240477689971 0 0 0 0.020597973627705657 0.071503201941810535 -0.021966846479935798 0 -0.021966846479935798 0.10040283151157536 0 0 0 0.042976508363346488 0.099107708019103263 -0.012367904150491771 0 -0.012367904150491771 0.16855926749748162 0 0 0 0.066916743879146229 0.10327128451852993 0.022176466982834209 0 0.022176466982834209 0.14969211108941061 0 0 0 0.063240848901985142 0.092237714686359829 0.019348456039314565 0 0.019348456039314565 0.17849961481030574 0 0 0 0.067684332374166378 0.075227614394593245 0.017286093077617748 0 0.017286093077617748 0.12372431409875961 0 0 0 0.049737982123338187 0.049621660200606627 -0.0058835881831157538 0 -0.0058835881831157538 0.09592621457747974 0 0 0 0.036386968694521571 0.066033872326063142 0.0058362080949047601 0 0.0058362080949047601 0.099967593661713497 0 0 0 0.041500366496944163 0.037163386359447596 0.030692713575284858 0 0.030692713575284858 0.10725229396514827 0 0 0 0.036103920081148981 0.016504158666189261 0.01768283090232789 0 0.01768283090232789 0.069301342765360374 0 0 0 0.021451375357887381 -0.0060125276786645726 0.024909117142031534 0 0.024909117142031534 0.076204644739737926 0 0 0 0.017548029265268369 0.0037403437189367228 -0.0018309940059116139 0 -0.0018309940059116139 0.044510703422797282 0 0 0 0.012062761785433473 -0.021079304142241094 0.0062551081000546127 0 0.0062551081000546127 0.041760627621360361 0 0 0 0.0051703308697798236 0.01782231880612295 0.0015857149602776788 0 0.0015857149602776788 0.087680588127872966 0 0 0 0.026375726733499 -0.023849690998844375 -0.014696562696274895 0 -0.014696562696274895 0.043184095680493473 0 0 0 0.0048336011704122744 -0.058163997795881439 -0.012428503017845177 0 -0.012428503017845177 0.022979949778842323 0 0 0 -0.0087960120042597789 -0.057722856795120792 0.0054044957112639042 0 0.0054044957112639042 0.024384825649804487 0 0 0 -0.0083345077863291039 -0.034777081726634157 -0.0068782475542840948 0 -0.0068782475542840948 0.03790074523257525 0 0 0 0.00078091587648529415 -0.045370460590916824 0.0188390527693858 0 0.0188390527693858 0.040158701753520459 0 0 0 -0.0013029397093490894 -0.020845973016400177 0.014340202463443974 0 0.014340202463443974 0.034324489836996541 0 0 0 0.003369629205149105 -0.058580622966206204 0.025097061749728755 0 0.025097061749728755 0.027614595998640662 0 0 0 -0.0077415067418913422 -0.044412313696109651 0.016821736790304992 0 0.016821736790304992 0.048314644588769218 0 0 0 0.00097558272316483619 -0.055266420978252129 0.005373659823325154 0 0.005373659823325154 0.025226769231827317 0 0 0 -0.007509912936606189 -0.084397803091141699 0.012691023138415025 0 0.012691023138415025 0.02460920221360452 0 0 0 -0.014947150219384281 -0.076896552866103779 0.0048289072526805366 0 0.0048289072526805366 0.019958161106527372 0 0 0 -0.014234597939894095 -0.12846466469689727 0.0067810061428764667 0 0.0067810061428764667 0.020995750168976257 0 0 0 -0.026867228631980211 -0.093830397881621869 0.00040481648104978563 0 0.00040481648104978563 0.01598628263237678 0 0 0 -0.019461028812311321 -0.14437490288891303 -0.0013562455798281081 0 -0.0013562455798281081 0.015805952659450451 0 0 0 -0.032142237557365685 -0.10078216687318431 0.0050463055624192787 0 0.0050463055624192787 0.012005306699713725 0 0 0 -0.022194215043367604 -0.079118946558800043 -0.0071626618978483381 0 -0.0071626618978483381 0.019108876330803687 0 0 0 -0.015002517556999117 -0.10293681782442399 -0.010649707876213832 0 -0.010649707876213832 0.013960047945836607 0 0 0 -0.022244192469646845 0.06128254234600107 0.016017726319692151 0 0.016017726319692151 0.044043727769387801 0 0 0 0.026331567528847209 0.065885311354196702 0.018065097581777517 0 0.018065097581777517 0.05570838178408985 0 0 0 0.030398423284571638 0.073306122554071887 0.019110863809250998 0 0.019110863809250998 0.058106903193383228 0 0 0 0.032853256436863772 0.055875346178873839 0.014018723716561468 0 0.014018723716561468 0.061477383137392254 0 0 0 0.029338182329066528 0.044081312002985699 0.0081657179950123081 0 0.0081657179950123081 0.061673422360521445 0 0 0 0.026438683590876789 0.047975308791046431 0.010118826834053109 0 0.010118826834053109 0.042839159204042562 0 0 0 0.022703616998772252 0.036500183561935892 0.004405290856570797 0 0.004405290856570797 0.043129302370164067 0 0 0 0.019907371483024995 0.051622347411404403 0.012733035375540137 0 0.012733035375540137 0.044151268738420409 0 0 0 0.023943404037456213 0.042201364707453948 0.0065486586253116841 0 0.0065486586253116841 0.028188462775929929 0 0 0 0.017597456870845959 0.041892903662587848 0.0079691543786397211 0 0.0079691543786397211 0.034947169887841141 0 0 0 0.01921001838760724 0.04066297191901784 0.0050846019763454431 0 0.0050846019763454431 0.016998970062301375 0 0 0 0.014415485495329797 0.046800811951639598 0.010089416511678554 0 0.010089416511678554 0.028326460776758683 0 0 0 0.01878181818209957 0.048782347494146283 0.0077125914105912576 0 0.0077125914105912576 0.018477649639384953 0 0 0 0.016814999283382804 0.051061155566252028 0.0097147104544447142 0 0.0097147104544447142 0.034717973785988995 0 0 0 0.02144478233806027 0.056000147502623866 0.013130185108247979 0 0.013130185108247979 0.030157774810696716 0 0 0 0.021539480578330137 0.058307271430837214 0.0076219453237286209 0 0.0076219453237286209 0.020495902809884874 0 0 0 0.019700793560180528 0.051471315402555819 0.0072618939612437584 0 0.0072618939612437584 0.018726254884948022 0 0 0 0.017549392571875946 0.049508446518427868 -0.0019132192602159545 0 -0.0019132192602159545 0.01058671939534683 0 0 0 0.015023791478443677 0.064873964334506873 0.0023126709536233983 0 0.0023126709536233983 0.025926624943011553 0 0 0 0.022700147319379617 0.060960025351489928 0.0054375333409962395 0 0.0054375333409962395 0.019203980898143205 0 0 0 0.020041001562408286 0.064379780892686436 0.012965945783439528 0 0.012965945783439528 0.033802973939420118 0 0 0 0.024545688708026633 0.047424660196158389 -0.0035896616071239666 0 -0.0035896616071239666 0.012641642129700635 0 0 0 0.015016575581464759 0.058361259366398188 -0.0075853732843653467 0 -0.0075853732843653467 0.018229613732356612 0 0 0 0.0191477182746887 0.067140107101086297 0.0021445727512262591 0 0.0021445727512262591 0.030114090804770614 0 0 0 0.024313549476464223 0.078659354277529459 -0.0040035625475592015 0 -0.0040035625475592015 0.043445530324736303 0 0 0 0.030526221150566458 0.096307688134947694 0.010338168013745305 0 0.010338168013745305 0.05842189837233687 0 0 0 0.038682396626821144 0.075332546543507128 0.012815580937237316 0 0.012815580937237316 0.037257885881940248 0 0 0 0.028147608106361854 0.085366182448888897 0.011555513358839959 0 0.011555513358839959 0.03724876862900342 0 0 0 0.030653737769473069 0.077088083925326373 0.01388058488269249 0 0.01388058488269249 0.05206261316673351 0 0 0 0.032287674273014995 0.099939620686860589 0.016562095794135923 0 0.016562095794135923 0.058192374637862976 0 0 0 0.039532998831180909 0.087743128684498975 0.02680470840514252 0 0.02680470840514252 0.089575591029866841 0 0 0 0.044329679928591423 0.12869765838270947 0.03173404699716019 0 0.03173404699716019 0.089976067625048561 0 0 0 0.054668431501939521 0.11293396681334374 0.028444447305893489 0 0.028444447305893489 0.1275831444730165 0 0 0 0.060129277821590069 0.08939724703462941 0.030212087293212869 0 0.030212087293212869 0.12715358851821384 0 0 0 0.054137708888210845 0.10086798051409353 0.024352843626447112 0 0.024352843626447112 0.094013457445161347 0 0 0 0.04872035948981375 0.12687320807333177 -0.0030725167842274581 0 -0.0030725167842274581 0.082714804591296737 0 0 0 0.052397003166157113 0.13539979901914034 0.012621114694301078 0 0.012621114694301078 0.11677905000971386 0 0 0 0.063044712257213559 0.14014575986467173 -0.017331684458502666 0 -0.017331684458502666 0.10549402886119674 0 0 0 0.061409947181467112 0.23685995507314056 -0.01068180534503238 0 -0.01068180534503238 0.16052630876242038 0 0 0 0.099346565958890243 0.16571035622820177 -0.0050279921704899089 0 -0.0050279921704899089 0.30893173518998907 0 0 0 0.1186605228545477 0.22442499799224269 0.087860586492181703 0 0.087860586492181703 0.22895468928537821 0 0 0 0.11334492181940521 0.12420429047909208 0.050240043855741073 0 0.050240043855741073 0.19860464790255308 0 0 0 0.080702234595411301 0.070780725503985148 0.018988949452743917 0 0.018988949452743917 0.12345427023684868 0 0 0 0.048558748935208444 0.12072314643000211 0.032570278875452871 0 0.032570278875452871 0.13142366623408622 0 0 0 0.063036703166022126 0.076780820419157556 -0.019719674995454638 0 -0.019719674995454638 0.22203647095493428 0 0 0 0.074704322843522949 0.061187582103353517 -0.021378142815167589 0 -0.021378142815167589 0.1317665848407058 0 0 0 0.048238541736014814 0.061596779744133287 -0.021753415541025931 0 -0.021753415541025931 0.13822799131629884 0 0 0 0.049956192765108057 0.073512601366585828 0.018213708259442039 0 0.018213708259442039 0.13130994675852173 0 0 0 0.051205637031276924 0.067393635713056593 0.017269240327868501 0 0.017269240327868501 0.083996455331180359 0 0 0 0.037847522761059217 0.062974156452753866 0.012056202913688814 0 0.012056202913688814 0.11793134258501022 0 0 0 0.045226374759441031 0.047068663591959249 0.0029443888140874138 0 0.0029443888140874138 0.080578156559602432 0 0 0 0.031911705037890432 0.054187919363920034 0.01151677231415793 0 0.01151677231415793 0.092064466880959095 0 0 0 0.036563096561219782 0.055259107405471915 0.013658383054066026 0 0.013658383054066026 0.060961639604675551 0 0 0 0.029055186752536856 0.068023381403831934 0.021507765709755627 0 0.021507765709755627 0.087814358274552973 0 0 0 0.038959434919596227 0.04006387196061633 0.0046123524664530308 0 0.0046123524664530308 0.058441045897877728 0 0 0 0.02462622946462352 0.041267989089396655 0.0029840637526840344 0 0.0029840637526840344 0.074675123354255038 0 0 0 0.028985778110912925 0.054259011667151885 -0.020853824509887407 0 -0.020853824509887407 0.087725582071078403 0 0 0 0.035496148434557576 0.039140704530691912 -0.0081083555386144718 0 -0.0081083555386144718 0.073453090757495967 0 0 0 0.028148448822046986 0.036551018325671251 -0.0065106662853620934 0 -0.0065106662853620934 0.06873255871677314 0 0 0 0.0263208942606111 0.049489065804328131 -0.00027893784429069632 0 -0.00027893784429069632 0.09982580898255336 0 0 0 0.037328718696720359 0.047915353401043664 -0.01821555692131472 0 -0.01821555692131472 0.065806855196597833 0 0 0 0.028430552149410381 0.045718753794692632 -0.018509006546304437 0 -0.018509006546304437 0.056263772073059909 0 0 0 0.025495631466938132 0.066013323381726732 -0.028635115014779791 0 -0.028635115014779791 0.062482041517288547 0 0 0 0.032123841224753771 0.059751660838309698 -0.02710846333758872 0 -0.02710846333758872 0.038920843841249386 0 0 0 0.024668126169889795 0.05006061362883267 -0.018118964671437723 0 -0.018118964671437723 0.031893850633281817 0 0 0 0.020488616065528639 0.067281472337472281 -0.023215819934115478 0 -0.023215819934115478 0.037022662616136445 0 0 0 0.026076033738402143 0.068953071136019381 -0.022949824730402163 0 -0.022949824730402163 0.042051240902216125 0 0 0 0.02775107800955888 0.059259226145421909 -0.016866848953884211 0 -0.016866848953884211 0.018191233592434464 0 0 0 0.019362614934464076 0.082912491385701198 -0.011599891299706004 0 -0.011599891299706004 0.030691918719800593 0 0 0 0.028401102526375455 0.076369372206699065 -0.016291252116462152 0 -0.016291252116462152 0.018840124417759785 0 0 0 0.023802374156114692 0.08183694648200715 -0.02158501863158227 0 -0.02158501863158227 0.025770897075810262 0 0 0 0.026901960889454318 0.10010541354999293 -0.041197195324280012 0 -0.041197195324280012 0.059475752289605749 0 0 0 0.039895291459899673 0.053758074292348045 -0.021479499561721925 0 -0.021479499561721925 0.088671628323519699 0 0 0 0.035607425653966927 0.071597990093453273 -0.033821489472398159 0 -0.033821489472398159 0.069037658151418518 0 0 0 0.035158912061217941 0.071942824319833509 -0.036862405068513564 0 -0.036862405068513564 0.078742211953629307 0 0 0 0.037671259068365728 0.07710881174835621 -0.04578495127786901 0 -0.04578495127786901 0.11763911170607189 0 0 0 0.048686980863607017 0.055720277642826659 -0.041836561743053315 0 -0.041836561743053315 0.15153678495010892 0 0 0 0.051814265648233916 0.088643359761920421 -0.039117720860626704 0 -0.039117720860626704 0.14799143396134851 0 0 0 0.059158698430817253 0.11523392725907247 -0.012152848346750553 0 -0.012152848346750553 0.37526764276876401 0 0 0 0.12262539250695913 0.091899050502217694 -0.015985165606941576 0 -0.015985165606941576 -0.0075590961444685079 0 0 0 0.021084988589437297 0.12397995019944996 -0.064109834387106157 0 -0.064109834387106157 0.095881330099508888 0 0 0 0.054965320074739678 0.20031448120152451 0.12319480637415292 0 0.12319480637415292 0.25989428956188831 0 0 0 0.11505219269085321 0.12036919990642385 -0.09272952327540919 0 -0.09272952327540919 0.1654249208997442 0 0 0 0.071448530201542029 0.0069035679106572061 0.0010868586960769474 0 0.0010868586960769474 0.018663069245617479 0 0 0 0.006391659289068671 0.30627452439559893 0.11190993641057681 0 0.11190993641057681 0.079816903174232401 0 0 0 0.09652285689245782 0.16800846492137017 0.031854677570528289 0 0.031854677570528289 0.052159962797204917 0 0 0 0.055042106929643841 0.015587445757775731 0.0026386576280480684 0 0.0026386576280480684 0.046996935577034084 0 0 0 0.015646095333702453 0.025687010588269207 0.0026427455474373612 0 0.0026427455474373612 0.051601377908461254 0 0 0 0.019322097124182577 0.14663821976325719 0.024710598373698711 0 0.024710598373698711 0.047097286598109633 0 0 0 0.048433876590341651 0.021878743147773314 0.0036340968694027953 0 0.0036340968694027953 0.065358392124079928 0 0 0 0.021809283817963314 0.03376443808606866 0.0089663619310802467 0 0.0089663619310802467 0.058197770897017442 0 0 0 0.022990552245771512 0.11945241005076929 0.018780033344241276 0 0.018780033344241276 0.034001013308290862 0 0 0 0.038363355839765079 0.083634779477078008 -0.021631772395057869 0 -0.021631772395057869 0.010819733599110787 0 0 0 0.023613628269047233 0.070396137191827898 0.0049432795085322112 0 0.0049432795085322112 0.034911967348676132 0 0 0 0.026327026135126011 0.073904076690809908 -0.008429208095558029 0 -0.008429208095558029 0.039503629846068034 0 0 0 0.02835192663421951 0.079283065242868628 -0.0021882063811096142 0 -0.0021882063811096142 0.026365088692855865 0 0 0 0.026412038483931116 0.062437354093559772 0.0079565776875305527 0 0.0079565776875305527 0.03694153161822078 0 0 0 0.024844721427945082 0.066899640528797405 0.0049042997621108614 0 0.0049042997621108614 0.05594067100138056 0 0 0 0.030710077882544512 0.053470036055639061 0.010213558709307013 0 0.010213558709307013 0.06724749031154198 0 0 0 0.030179381591795243 0.076374354254146265 0.0024718458000501098 0 0.0024718458000501098 0.037994913139951292 0 0 0 0.028592316848524341 0.11007867105675673 0.017715059269390182 0 0.017715059269390182 0.044307123016962713 0 0 0 0.038596448518429805 0.11492062224584088 0.011753737486861704 0 0.011753737486861704 0.062168069786888047 0 0 0 0.044272173008182314 0.12070174454618021 0.010803975060863613 0 0.010803975060863613 0.061155295244866625 0 0 0 0.045464259947761598 0.026975918110147289 0.004290024924212479 0 0.004290024924212479 0.080787872430375079 0 0 0 0.026940947635130587 0.10650183034494509 0.0074986579081374183 0 0.0074986579081374183 0.066284420287168855 0 0 0 0.043196562658028625 0.11062253982662007 0.0092510902043684284 0 0.0092510902043684284 0.06882420539090095 0 0 0 0.044861686304380033 0.099835529023510561 0.012781412408374493 0 0.012781412408374493 0.06693163396934354 0 0 0 0.041691790748213386 0.10494772300639355 0.0057207775588031936 0 0.0057207775588031936 0.079918251653232186 0 0 0 0.046216493664906544 0.067901443341900625 0.010663017138993407 0 0.010663017138993407 0.08423332140459816 0 0 0 0.038033691186624752 0.031768955656522491 0.004724581715139369 0 0.004724581715139369 0.095127039543243974 0 0 0 0.031723998799941609 0.10313110409246995 0.0068671775092141729 0 0.0068671775092141729 0.082158276652388729 0 0 0 0.046322345186214586 0.067542740821440905 0.0096653045021384554 0 0.0096653045021384554 0.054896131494832856 0 0 0 0.030609718079068454 0.070241593978776246 0.0093271405471619107 0 0.0093271405471619107 0.035966076526165458 0 0 0 0.026551917626235433 0.073775726571385036 0.0073174953305900903 0 0.0073174953305900903 0.071585983550008614 0 0 0 0.03634042753034844 0.07707955641321157 0.0093296030177526523 0 0.0093296030177526523 0.057594852778943412 0 0 0 0.033668602298038697 0.076408992092634076 0.013176821729574684 0 0.013176821729574684 0.064411207054007547 0 0 0 0.035205049786660447 0.070515257588969399 0.010962372893403335 0 0.010962372893403335 0.03473660496332498 0 0 0 0.026312965638073643 0.071691189667228067 0.0094987431509931664 0 0.0094987431509931664 0.037755022152262785 0 0 0 0.02736155295487272 0.073259220324235444 0.0067233027530414768 0 0.0067233027530414768 0.034742176717494737 0 0 0 0.027000349260432505 0.07044635604350416 0.00074716475468913912 0 0.00074716475468913912 0.016426345011578691 0 0 0 0.021718175263770678 0.070623460237345254 0.0036971046347645253 0 0.0036971046347645253 0.020501268249451088 0 0 0 0.022781182121699078 0.06416423863399083 0.0048719482105946954 0 0.0048719482105946954 0.01688322254498148 0 0 0 0.020261865294743098 0.067193388269578769 0.0026674517766542422 0 0.0026674517766542422 0.020613180756469895 0 0 0 0.021951642256512138 0.064432939892833857 -0.004268467064118292 0 -0.004268467064118292 0.014119715484453677 0 0 0 0.019638163844321876 0.06919378353075771 0.00017572290448394923 0 0.00017572290448394923 0.019160761958319859 0 0 0 0.022088636372269335 0.07221229239588331 -0.0076278945813640781 0 -0.0076278945813640781 0.015652023005090943 0 0 0 0.021966078850243542 0.062465677639546566 -0.0079686486850415184 0 -0.0079686486850415184 0.010042053314239574 0 0 0 0.018126932738446552 0.071072609559289401 -0.012348906719487438 0 -0.012348906719487438 0.017825346701757838 0 0 0 0.022224489065261782 0.061645859047404772 -0.013479935447522101 0 -0.013479935447522101 0.018191964096224401 0 0 0 0.019959455785907267 0.071250665408180536 -0.0071031670201734953 0 -0.0071031670201734953 0.015138765165096338 0 0 0 0.021597357643319208 0.071686508869665766 0.00062534164594180153 0 0.00062534164594180153 0.018598246740448354 0 0 0 0.022571188902528565 0.077439171903465387 -0.0033700387472771764 0 -0.0033700387472771764 0.023717757335856349 0 0 0 0.025289232309830406 -0.044866208076618175 0.011025118130318923 0 0.011025118130318923 0.018585377902049616 0 0 0 -0.0065702075436419594 -0.051666939273970813 0.012196259744959748 0 0.012196259744959748 0.018965547366468272 0 0 0 -0.0081753479768756354 -0.028943361029557635 0.031503632361298023 0 0.031503632361298023 0.029887324901332057 0 0 0 0.0002359909679436889 -0.086847053191255574 0.014569677807607428 0 0.014569677807607428 0.018913162572886222 0 0 0 -0.01698347265459238 -0.10066161717654787 0.01257150611950647 0 0.01257150611950647 0.022629264613910793 0 0 0 -0.019508088140659241 -0.050675320028822468 0.017265012818447334 0 0.017265012818447334 0.019627402481344536 0 0 0 -0.0077619793868696219 -0.05054724586496645 0.017365773681475238 0 0.017365773681475238 0.021105343279867683 0 0 0 -0.0073604756462747889 -0.028059836599125421 0.037196687052283295 0 0.037196687052283295 0.035350888231766131 0 0 0 0.0018227629081601915 -0.0062619441350907634 0.038915849740827513 0 0.038915849740827513 0.038818107353656761 0 0 0 0.0081390408046415341 0.013592952309943618 0.046527312086727751 0 0.046527312086727751 0.05695170937218208 0 0 0 0.017636165420531369 -0.0035019693965004928 0.032737147466916305 0 0.032737147466916305 0.026956436812962892 0 0 0 0.0058636168541155165 0.0076924647297116622 0.044620247842111826 0 0.044620247842111826 0.035663765426962479 0 0 0 0.01083905753916839 -0.017032014746566237 0.027092316953322149 0 0.027092316953322149 0.020237590322913057 0 0 0 0.00080139389408662165 0.015702222836469049 0.038591457940476748 0 0.038591457940476748 0.025269959810008125 0 0 0 0.010243045661619377 0.074406880203130604 0.051413157478501059 0 0.051413157478501059 0.043957479399272081 0 0 0 0.029591089900600581 0.045647697890596972 0.047575948985276326 0 0.047575948985276326 0.037852870825071605 0 0 0 0.020875142178917061 0.091169786191146018 0.067989190433292879 0 0.067989190433292879 0.072631472138248332 0 0 0 0.040950314582348601 0.045789578573390666 0.050760387850362521 0 0.050760387850362521 0.041652245005788124 0 0 0 0.021860455894794628 -0.001086514963236529 0.034371375077614258 0 0.034371375077614258 0.044325880552751329 0 0 0 0.010809841397378617 0.03344695472265713 0.055535349654886851 0 0.055535349654886851 0.08303817094277377 0 0 0 0.029121281416357725 0.041998244970423759 0.047280081439642047 0 0.047280081439642047 0.068751785874094917 0 0 0 0.027687507711129655 0.079656812176016223 0.069983719415091461 0 0.069983719415091461 0.12915366915096649 0 0 0 0.052202620331745664 0.098996210403989093 0.072765458287417872 0 0.072765458287417872 0.18949994946026982 0 0 0 0.072124039966064757 0.12978728855130289 0.088811071979587153 0 0.088811071979587153 0.089885285042810334 0 0 0 0.05491814339852831 0.13537281969747442 0.069854223852201081 0 0.069854223852201081 0.085649383264488899 0 0 0 0.055255550740490961 0.098742640524513536 0.049943597409109253 0 0.049943597409109253 0.045799345838435368 0 0 0 0.036135496590737226 0.11427482626143728 0.049640981173389775 0 0.049640981173389775 0.050836885053349323 0 0 0 0.041277927828696687 0.13050095447567966 0.024329097117147036 0 0.024329097117147036 0.040829406870975582 0 0 0 0.042832590336663534 0.087525663115741392 0.037207174679290023 0 0.037207174679290023 0.03367419395551563 0 0 0 0.030299964267814228 0.082663962969922733 0.034310943048116216 0 0.034310943048116216 0.032430593262945173 0 0 0 0.028773639058216949 0.10616371599647356 0.023651012190855969 0 0.023651012190855969 0.044548545456447375 0 0 0 0.037678065363230151 0.098190485224002866 0.017600051381875925 0 0.017600051381875925 0.042078985217085751 0 0 0 0.035067367610272071 0.097820373162472274 0.013270251075054029 0 0.013270251075054029 0.053197710096863027 0 0 0 0.03775452081483377 0.0890424373633521 0.014201894876903154 0 0.014201894876903154 0.050272301232599792 0 0 0 0.034828684648987862 0.079987246568946124 0.022066808396730808 0 0.022066808396730808 0.036265288754184666 0 0 0 0.029063133830782573 0.079910407705291786 0.02726728711963293 0 0.02726728711963293 0.032792173421546611 0 0 0 0.02817564528170946 0.054991937987323922 0.022879367938837714 0 0.022879367938837714 0.029693080864067578 0 0 0 0.02117125471284774 0.056291730367465487 0.020748903470501512 0 0.020748903470501512 0.030474718911727816 0 0 0 0.021691612319798437 0.05296825282772577 0.0247009967552142 0 0.0247009967552142 0.026529656544711955 0 0 0 0.019874477343109209 0.027923164683248292 0.029762759072703759 0 0.029762759072703759 0.021740327983680086 0 0 0 0.012415873166732094 0.058138549894011349 0.035407561270519639 0 0.035407561270519639 0.030205342407629399 0 0 0 0.022085973075410048 0.067175197864304592 0.028883065724620627 0 0.028883065724620627 0.028155590210628745 0 0 0 0.023832697018733362 0.039494554814896721 0.036161918849605068 0 0.036161918849605068 0.024615701474723473 0 0 0 0.016027564072405021 0.031414143575521872 0.0427308041797132 0 0.0427308041797132 0.029005429066530086 0 0 0 0.015104893160513014 0.0093793119704389527 0.028257961418681532 0 0.028257961418681532 0.018603214752482611 0 0 0 0.0069956316807304741 0.002618786117363131 0.032758396266203471 0 0.032758396266203471 0.026214528651150121 0 0 0 0.007208328692128313 0.0064580406891614484 0.019974327455565051 0 0.019974327455565051 0.019933441227751203 0 0 0 0.0065978704792282183 0.0068193997486257207 0.029168942886577565 0 0.029168942886577565 0.018386414507574722 0 0 0 0.0063014535640501523 0.029863463036857274 0.026565399306393012 0 0.026565399306393012 0.021751927641652458 0 0 0 0.012903847669627266 0.030280839794915082 0.022524015137240117 0 0.022524015137240117 0.018604287621818094 0 0 0 0.012221281854183641 0.016923806549826059 0.016920492233831963 0 0.016920492233831963 0.018656243142866954 0 0 0 0.0088950124231732524 0.0090433165366360369 0.017794018786271737 0 0.017794018786271737 0.016029413138469728 0 0 0 0.00626818241877658 4.460957297247603e-05 0.020596443619640858 0 0.020596443619640858 0.018604476354662225 0 0 0 0.0046622714819084532 -0.011334880472626319 0.0064611381512984511 0 0.0064611381512984511 0.01518898576127925 0 0 0 0.00096352632216323286 0.0049576324225474311 0.00595953845747621 0 0.00595953845747621 0.017428054689216044 0 0 0 0.0055964217779408409 -0.0067569071124222724 0.0085916814010893461 0 0.0085916814010893461 0.018699581881912231 0 0 0 0.0029856686923723785 -0.031208000358608046 0.0089431582898920059 0 0.0089431582898920059 0.01565124232247328 0 0 0 -0.0038891895090338302 -0.021462722837456205 0.023315870300675168 0 0.023315870300675168 0.016985426382195801 0 0 0 -0.0011193241138151011 -0.01731938867508831 0.011579831164832757 0 0.011579831164832757 0.018379146182342154 0 0 0 0.00026493937681337787 0.016737082123418782 0.0034738811407049042 0 0.0034738811407049042 0.017065454216223325 0 0 0 0.008450634084910473 0.010418818196618052 0.001666410810721608 0 0.001666410810721608 0.014835153302834581 0 0 0 0.006313492874863158 0.020429659189338256 0.0060564632250290629 0 0.0060564632250290629 0.017477122104854637 0 0 0 0.0094766953235483342 0.0040965185270374072 0.0030535817766841333 0 0.0030535817766841333 0.015018683000006305 0 0 0 0.0047788003817608171 0.0087475137068930842 0.0028036799199149254 0 0.0028036799199149254 0.015570673187931705 0 0 0 0.0060795467237062528 -0.0026773328081861614 0.0043692649585952382 0 0.0043692649585952382 0.014444287184132598 0 0 0 0.0029417385939867202 0.0014891626225088661 0.010783719850234907 0 0.010783719850234907 0.014738627313596986 0 0 0 0.0040569474840266295 0.0077601141541825402 0.0066323739293326078 0 0.0066323739293326078 0.015404463970307702 0 0 0 0.0057911445311222831 0.017281313858884095 0.013050978145050407 0 0.013050978145050407 0.017091608562426863 0 0 0 0.0085932306053277951 0.01872336100081351 0.0096658780425484814 0 0.0096658780425484814 0.019371992211612898 0 0 0 0.0095238383031064355 0.027735926281416967 0.013501492999020925 0 0.013501492999020925 0.019936895563605894 0 0 0 0.011918205461255882 0.034050844569365246 0.0089041067734081381 0 0.0089041067734081381 0.022837888350501601 0 0 0 0.014222183229966712 0.032472559916354671 0.0048468204802711856 0 0.0048468204802711856 0.02397857482460175 0 0 0 0.01411278368523905 0.020014883093429137 0.0084247717731047445 0 0.0084247717731047445 0.019567843042350708 0 0 0 0.0098956815339449333 0.029895515221299546 0.006563192830955078 0 0.006563192830955078 0.02352372038232281 0 0 0 0.013354808900905596 0.051645656157878639 0.0045550003767615976 0 0.0045550003767615976 0.035393857796241601 0 0 0 0.021759878488530449 0.055060895973318869 0.0066702499033208795 0 0.0066702499033208795 0.044873334238578089 0 0 0 0.024983557552974101 0.067207026504440437 0.0058207844695847832 0 0.0058207844695847832 0.044975558708717056 0 0 0 0.028045646303289429 0.034588216217003698 0.0099921693449437632 0 0.0099921693449437632 0.027470177452797451 0 0 0 0.015514598417450287 0.034148808688076793 0.01568995969171734 0 0.01568995969171734 0.022629627138641695 0 0 0 0.014194608956679566 0.050281065698963345 0.0099682709783559531 0 0.0099682709783559531 0.030295013521410841 0 0 0 0.020144019805093893 0.050720548367946039 0.014082738670164963 0 0.014082738670164963 0.028143454450855643 0 0 0 0.019716000704700365 0.064288597851277052 0.014802203292177296 0 0.014802203292177296 0.037132847839106198 0 0 0 0.025355361422595424 0.052151681386911619 0.010901744102407851 0 0.010901744102407851 0.03695689433877547 0 0 0 0.022277143931421772 0.077778292851378827 0.0072228442488317945 0 0.0072228442488317945 0.054183298472487706 0 0 0 0.032990397830966467 0.078065565394614733 0.013408586067100173 0 0.013408586067100173 0.052705128968748127 0 0 0 0.032692673590840826 0.073863511337536991 0.014203538902595403 0 0.014203538902595403 0.040243718067419554 0 0 0 0.028526807351239247 0.085015967171925499 0.010631955000879989 0 0.010631955000879989 0.056724153565360869 0 0 0 0.03543503018432137 0.09382692434744877 0.0058436955607507057 0 0.0058436955607507057 0.075882631395849387 0 0 0 0.042427388935824206 0.086380055989907056 0.0023726845281160092 0 0.0023726845281160092 0.069270959058110648 0 0 0 0.038912753762004426 0.093849276015960381 0.0081879863975330425 0 0.0081879863975330425 0.08106390787495954 0 0 0 0.043728295972730091 0.07150367500812739 0.010381062047303269 0 0.010381062047303269 0.052395224815865615 0 0 0 0.030974724955998303 0.081037978051854753 0.0065489927895658884 0 0.0065489927895658884 0.069414861575677 0 0 0 0.037613209906882994 0.097804931120481164 -0.0026264382431007149 0 -0.0026264382431007149 0.089949335284553733 0 0 0 0.046938566601258724 0.086158016062974241 -0.0033871125676792069 0 -0.0033871125676792069 0.089331018770488768 0 0 0 0.043872258708365752 0.10648831132999592 0.0026593300026271915 0 0.0026593300026271915 0.091973388329613215 0 0 0 0.049615424914902118 0.10052531180640001 0.00076223132384733994 0 0.00076223132384733994 0.091274890595790303 0 0 0 0.047950050600547467 0.11025932119003645 -0.0051647471711917525 0 -0.0051647471711917525 0.11579537660044359 0 0 0 0.056513674447620232 0.1249318790472683 0.00341961431611848 0 0.00341961431611848 0.11914984251110461 0 0 0 0.061020430389593233 0.099415570540746234 -0.0070428969121212326 0 -0.0070428969121212326 0.1033222560241347 0 0 0 0.050684456641220343 0.083811914762964124 -0.00028739004824407388 0 -0.00028739004824407388 0.092137286419951892 0 0 0 0.043987300295728948 0.04895828444986039 0.0017266343958000745 0 0.0017266343958000745 0.038686325472895078 0 0 0 0.021911152480688756 0.05619477699990072 0.00069183503797920487 0 0.00069183503797920487 0.060395803123038938 0 0 0 0.029147645030734859 0.073633045590230761 -0.0046458572165032908 0 -0.0046458572165032908 0.064139305030152194 0 0 0 0.034443087655096072 0.050404801217996509 0.0017768706196339412 0 0.0017768706196339412 0.03652231015433216 0 0 0 0.021731777843082334 0.077056672451854435 -0.001963949153015121 0 -0.001963949153015121 0.061880455239791132 0 0 0 0.034734281922911281 0.056904367840619585 0.0016869198289335419 0 0.0016869198289335419 0.056156752333209159 0 0 0 0.028265280043457075 0.073175900280078698 -0.00028990948539653338 0 -0.00028990948539653338 0.056261581244860359 0 0 0 0.032359370381235042 0.036142497935016893 0.0025749037444939837 0 0.0025749037444939837 0.03305989990983127 0 0 0 0.017300599461212207 0.019997729001552056 0.0010791415073820865 0 0.0010791415073820865 0.020516146845699801 0 0 0 0.010128468961812853 0.02981992368162345 0.00061692576454730474 0 0.00061692576454730474 0.024537156141153815 0 0 0 0.013589269955694316 0.020667355397825826 0.0036752240114634738 0 0.0036752240114634738 0.021456531437296533 0 0 0 0.010530971708780701 0.033661092007840843 0.00123803197050254 0 0.00123803197050254 0.036092213079100155 0 0 0 0.017438326271735249 0.03609775506680668 -0.0025672327416152996 0 -0.0025672327416152996 0.03446220872450656 0 0 0 0.017639990947828643 0.025387065064441217 -0.00090330845402464277 0 -0.00090330845402464277 0.019500886240161996 0 0 0 0.011221987826151025 0.031590500639961938 0.0017564529679752194 0 0.0017564529679752194 0.023838173303289523 0 0 0 0.013857168485813531 0.024237277086410547 0.0023663389203427698 0 0.0023663389203427698 0.023864939488319692 0 0 0 0.012025554143682893 0.020465029122052059 0.00020392443263084203 0 0.00020392443263084203 0.018224731915267967 0 0 0 0.0096724402593300063 0.018068947012808756 0.0014588292687198745 0 0.0014588292687198745 0.017651568784937677 0 0 0 0.008930128949436511 0.016667934561596542 0.00064331225378033707 0 0.00064331225378033707 0.014393955433837924 0 0 0 0.0077654724988587276 0.0131876891162237 0.0011736065588887623 0 0.0011736065588887623 0.014589114934080882 0 0 0 0.0069442010125755349 0.016360452503490386 0.0020148457852784407 0 0.0020148457852784407 0.015958170558774576 0 0 0 0.0080796557655657963 0.01193496220887269 0.0020065153221229259 0 0.0020065153221229259 0.01626731261449077 0 0 0 0.007050568705840643 0.017283968217660706 0.00029291354793103963 0 0.00029291354793103963 0.016750768890603784 0 0 0 0.0085086842770659143 0.0087442881434982578 0.00083362180704571465 0 0.00083362180704571465 0.015274053509933161 0 0 0 0.0060045854133576881 0.069476219967908759 0.01337918737914065 0 0.01337918737914065 0.041126492774989587 0 0 0 0.027650678185724642 0.083121319367594537 0.01362374789904186 0 0.01362374789904186 0.066311892321366583 0 0 0 0.03735830292224035 0.08080390586662145 0.017234496233966501 0 0.017234496233966501 0.060495627734256874 0 0 0 0.035324883400219609 0.077462400063224496 0.017691529360861685 0 0.017691529360861685 0.058360623751535612 0 0 0 0.033955755953690103 0.067820456096025356 0.014478084302526117 0 0.014478084302526117 0.040916632712156419 0 0 0 0.027184272202045414 0.059692498992530985 0.0099689315068873241 0 0.0099689315068873241 0.030382908134324316 0 0 0 0.022518851781713811 0.06068724981073903 0.0076333900895344808 0 0.0076333900895344808 0.030455553341385722 0 0 0 0.022785700788031216 0.06484524105843642 0.010116457720497213 0 0.010116457720497213 0.031305370053890891 0 0 0 0.024037652778081786 0.059573825303533112 0.0068510805142156239 0 0.0068510805142156239 0.021682210702364424 0 0 0 0.020314009001474398 0.060174568556598577 0.0029494931481357511 0 0.0029494931481357511 0.020279772583601044 0 0 0 0.020113585285049827 0.070630511811942243 0.0091541315278594604 0 0.0091541315278594604 0.033282403946303885 0 0 0 0.025978228939561532 0.070011228151375476 0.012694014994534208 0 0.012694014994534208 0.032807884664035725 0 0 0 0.025704778203852724 0.066984208300166131 0.011474135939564201 0 0.011474135939564201 0.03909848775525368 0 0 0 0.026520674013854911 0.07700453841488436 0.013077063383981225 0 0.013077063383981225 0.053770340546731688 0 0 0 0.03269371974040397 0.074906960570151643 0.015072078245263215 0 0.015072078245263215 0.049418472558953985 0 0 0 0.031081358282276456 0.08152019245609024 0.010847618208020771 0 0.010847618208020771 0.068591642329144831 0 0 0 0.037527958696308733 0.082745652584891888 0.0068255010206143274 0 0.0068255010206143274 0.08825257170075379 0 0 0 0.042749556071411482 0.096071166919715068 0.0071497683836039272 0 0.0071497683836039272 0.10221642501330452 0 0 0 0.049571897983254898 0.086870869953965757 0.0157291679686902 0 0.0157291679686902 0.077766158031285559 0 0 0 0.041159256996312787 0.10168111750594228 0.009485649227205073 0 0.009485649227205073 0.080614015115388571 0 0 0 0.045573783155332726 0.10913179796963313 0.0033514606670320634 0 0.0033514606670320634 0.099517283955032454 0 0 0 0.052162270481166173 0.086987643241252272 0.010610104871973142 0 0.010610104871973142 0.096233145428579525 0 0 0 0.045805197167457928 0.0363609417467343 0.0050053968070211258 0 0.0050053968070211258 0.10888289858943592 0 0 0 0.036310960084042554 0.097978939799126197 0.0049330096018480596 0 0.0049330096018480596 0.077674232080647165 0 0 0 0.043913292969943285 0.10581836802354694 0.0065222158640110273 0 0.0065222158640110273 0.10289039532555844 0 0 0 0.052177190837276566 0.10545810226085472 0.00107076706815179 0 0.00107076706815179 0.10597660900373818 0 0 0 0.052858677816148392 0.040907239213462079 0.0051541143599734048 0 0.0051541143599734048 0.12252718305078569 0 0 0 0.040858605566061947 0.10618712266778282 0.011414348059057861 0 0.011414348059057861 0.10985509472889932 0 0 0 0.054010554349170514 0.11633095626179413 0.0036988538297388907 0 0.0036988538297388907 0.10792110621133899 0 0 0 0.056063015618283196 0.045608246382187696 0.0051909635672916423 0 0.0051909635672916423 0.13646274170050693 0 0 0 0.045517747020673655 0.11041545603284522 0.0070698930422050665 0 0.0070698930422050665 0.10628833839785423 0 0 0 0.054175948607674523 0.08939781033055566 0.012737520201649106 0 0.012737520201649106 0.08354055938652194 0 0 0 0.043234592429269414 0.10671969762284159 0.0093796887787518657 0 0.0093796887787518657 0.11519051222952409 0 0 0 0.055477552463091412 0.092482799007008121 0.019017378125674528 0 0.019017378125674528 0.083851349370682615 0 0 0 0.044083537094422698 0.10146663388316725 0.014228045578201509 0 0.014228045578201509 0.087604413985471308 0 0 0 0.047267761967159552 0.10998301075285297 0.018357039750657334 0 0.018357039750657334 0.10336334703518835 0 0 0 0.053336589447010363 0.099204840114194226 0.012248697454190993 0 0.012248697454190993 0.088264534817393478 0 0 0 0.046867343732896964 0.12563274259661963 0.012543381457958414 0 0.012543381457958414 0.11989839351600995 0 0 0 0.061382784028157472 0.12473616940534049 0.0068450463766649566 0 0.0068450463766649566 0.12879980218510856 0 0 0 0.063383992897612262 0.12098512731558336 0.0072949372373970478 0 0.0072949372373970478 0.10938204320819937 0 0 0 0.057591792630945771 0.12406108171450825 -0.0010819271189290713 0 -0.0010819271189290713 0.12635627861592269 0 0 0 0.062604340082607735 0.050292143850378349 0.0051189537366051387 0 0.0051189537366051387 0.15100107384032699 0 0 0 0.050323304422676338 0.14809880109513565 0.01047029900666685 0 0.01047029900666685 0.13396256678604396 0 0 0 0.070515341970294937 0.1372282470952991 0.0042037002808024138 0 0.0042037002808024138 0.13074792749727898 0 0 0 0.066994043648144291 0.11944414323628316 -0.0017068639007855047 0 -0.0017068639007855047 0.12797061198209914 0 0 0 0.061853688804595741 0.13567775073281857 0.0069532341905702566 0 0.0069532341905702566 0.13570092929524469 0 0 0 0.067844670007015828 0.056355627860797904 0.005064224755080414 0 0.005064224755080414 0.16715136793334018 0 0 0 0.055876748948534519 0.1560175703042197 -0.00026772450104539658 0 -0.00026772450104539658 0.14815960576717124 0 0 0 0.076044294017848291 0.13666028591561075 -0.0034230477075811727 0 -0.0034230477075811727 0.14863170752798904 0 0 0 0.071322998360900058 0.10286676405484824 0.016908631650279893 0 0.016908631650279893 0.092445989683726637 0 0 0 0.048828188434643705 0.13254444274270613 0.011799855097394507 0 0.011799855097394507 0.14018029530481413 0 0 0 0.068181184511880183 0.15679653134909666 0.0027504672597445617 0 0.0027504672597445617 0.14299601360249703 0 0 0 0.074948136237898338 0.13402257031263959 0.0094741865003075687 0 0.0094741865003075687 0.13893789921539434 0 0 0 0.06824011738200858 0.11767409024451791 0.0022861391119876132 0 0.0022861391119876132 0.096788302700468121 0 0 0 0.053615598236246564 0.0722123945201332 0.0095668745974824276 0 0.0095668745974824276 0.054430838498189749 0 0 0 0.031660808254580702 0.096718831122900861 0.0099116178872002969 0 0.0099116178872002969 0.084534926347938577 0 0 0 0.045313439367709873 0.082986470309459132 0.0073834547310400438 0 0.0073834547310400438 0.043391337342705616 0 0 0 0.031594451913041222 0.08864769525930466 0.0092230974547741762 0 0.0092230974547741762 0.076065995697315092 0 0 0 0.041178422739154952 0.079034571216595462 0.012818846029389985 0 0.012818846029389985 0.049931182020842124 0 0 0 0.032241438309359383 0.072153836511452546 0.015835151139970957 0 0.015835151139970957 0.048419701403889071 0 0 0 0.030143384478835467 0.077350152209394438 0.012914095032821371 0 0.012914095032821371 0.058945481935553733 0 0 0 0.034073908536236971 0.088648748838353275 0.019209452125035414 0 0.019209452125035414 0.072285215138655157 0 0 0 0.040233490994252108 0.062591519512065485 0.01148993925004399 0 0.01148993925004399 0.035453174738077298 0 0 0 0.024511173562535682 0.063424747768664774 0.011411398688229102 0 0.011411398688229102 0.039530889149022266 0 0 0 0.025738909229421757 0.064199989014567499 0.012484940453336341 0 0.012484940453336341 0.040348866637584524 0 0 0 0.026137213913038054 0.068181357224755421 0.0099181925865218235 0 0.0099181925865218235 0.047855497210588363 0 0 0 0.029009213608836057 0.057335248268252481 0.0076140843230063371 0 0.0076140843230063371 0.031724880194833327 0 0 0 0.022265032115771466 0.0621176142866324 0.0041912319075574356 0 0.0041912319075574356 0.029000303105249203 0 0 0 0.022779479347970449 0.060324653563275155 0.0064969037590003609 0 0.0064969037590003609 0.013610836933267256 0 0 0 0.018483872624135589 0.056804107181956554 0.0024857065051503702 0 0.0024857065051503702 0.020939487775557986 0 0 0 0.019435898739378621 0.057803697824736044 0.00021834917560087375 0 0.00021834917560087375 0.0027342101712009015 0 0 0 0.015134476998984236 0.06141209680341686 0.0046833287531711787 0 0.0046833287531711787 0.021691911087631022 0 0 0 0.020776001972762026 0.055029018984381367 0.0023339781002246207 0 0.0023339781002246207 0.026875334993808231 0 0 0 0.020476088494547434 0.058319353759581201 0.0065897338896905855 0 0.0065897338896905855 0.023227530442000349 0 0 0 0.020386721050395414 0.091253366832149074 -0.0079489704503732279 0 -0.0079489704503732279 0.048949882086148033 0 0 0 0.035050812229574291 0.081527550317837649 -0.00064162190192967872 0 -0.00064162190192967872 0.019680069761906338 0 0 0 0.025301905019935955 0.066798899224159269 -0.002804616764495893 0 -0.002804616764495893 0.032533238331804659 0 0 0 0.024833034388990927 0.080350610459490046 -0.0001512767484351113 0 -0.0001512767484351113 0.055963885279583847 0 0 0 0.034078623934768459 0.074283498712977375 -0.0010508126240980631 0 -0.0010508126240980631 0.035820755713463326 0 0 0 0.027526063606610057 0.066732664241595269 0.00075844441545463992 0 0.00075844441545463992 0.037140319215526574 0 0 0 0.025968245864280454 0.069170900239178879 0.00030578699219632743 0 0.00030578699219632743 0.046734558793996017 0 0 0 0.028976364758293793 0.082188299051424385 -0.005535346306133393 0 -0.005535346306133393 0.052627825636922587 0 0 0 0.033704031172086757 0.063141831929465334 0.0049184462294731834 0 0.0049184462294731834 0.031265550572011191 0 0 0 0.023601845625369142 0.06196541469076039 0.0020049684072293295 0 0.0020049684072293295 0.037833698189396636 0 0 0 0.024949778220039243 0.055346219744719372 0.0065383584079660162 0 0.0065383584079660162 0.030531134244970781 0 0 0 0.021469338497422552 0.060514671865302877 0.0068286605846248349 0 0.0068286605846248349 0.032089706215830405 0 0 0 0.023151094520283216 0.058148192774053364 0.0059855165632476115 0 0.0059855165632476115 0.025258570283513415 0 0 0 0.020851690764391695 0.061132556839477603 0.0043124769822115161 0 0.0043124769822115161 0.031303622308485712 0 0 0 0.023109044786990829 0.058413491669201401 0.0027285066230788579 0 0.0027285066230788579 0.028484269026963327 0 0 0 0.021724440174041182 0.057139963669138483 0.0050288889674076631 0 0.0050288889674076631 0.030103992575176264 0 0 0 0.021810989061078701 0.062962549194080619 0.00016259300490878426 0 0.00016259300490878426 0.034150840874711319 0 0 0 0.024278347517197985 0.060931028395517561 0.0014830869764339699 0 0.0014830869764339699 0.03588686756896653 0 0 0 0.024204473991121023 0.069826453541205369 -0.0039952660097814785 0 -0.0039952660097814785 0.045651322489639878 0 0 0 0.028869444007711242 0.073068718563256807 -0.0027799161974621511 0 -0.0027799161974621511 0.054344856848109524 0 0 0 0.031853393852841638 0.063239787747181253 -0.00011191875491442516 0 -0.00011191875491442516 0.035838303602596655 0 0 0 0.024769522837444491 0.058394278195169708 -0.0011637500445031979 0 -0.0011637500445031979 0.026739821981252909 0 0 0 0.021283525044105661 0.062695732501184681 -0.0039272042751181124 0 -0.0039272042751181124 0.037495094786416855 0 0 0 0.025047706821900419 0.064874477272426817 -0.0038967784954065179 0 -0.0038967784954065179 0.04445867617894117 0 0 0 0.02733328836284199 0.060164051555064664 -0.0037484157659826434 0 -0.0037484157659826434 0.028138045479931248 0 0 0 0.022075524258749042 0.055964530916901456 -0.0024878336622681935 0 -0.0024878336622681935 0.016355490295910435 0 0 0 0.018080005303202917 0.061998961637617513 0.00044918132611720951 0 0.00044918132611720951 0.021822843707174792 0 0 0 0.020955451336198062 0.057767698728458272 0.0026827267215757955 0 0.0026827267215757955 0.02058940643178897 0 0 0 0.019589276290061797 0.062281754329085039 0.0052150256366601533 0 0.0052150256366601533 0.026658245691580651 0 0 0 0.022235000005166462 0.061306566370235217 0.00070523707850145279 0 0.00070523707850145279 0.028583302703644398 0 0 0 0.022472467268469888 0.077458284002326461 -0.011458100463182408 0 -0.011458100463182408 0.071274508065481967 0 0 0 0.037183198016952024 0.024966487054671881 -0.0071116687153355805 0 -0.0071116687153355805 0.074718751162592162 0 0 0 0.024921309554316012 0.085430424589182152 -0.0091940322947633435 0 -0.0091940322947633435 0.064322285687970604 0 0 0 0.037438177569288134 0.077828920422727169 -0.0095188127822274649 0 -0.0095188127822274649 0.065140730829652438 0 0 0 0.035742412813094995 0.067425150344676221 -0.0067414548055123175 0 -0.0067414548055123175 0.060590580912024739 0 0 0 0.03200393281417524 0.062956037489195149 -0.0092348716056274149 0 -0.0092348716056274149 0.041792335591369606 0 0 0 0.026187093270141203 0.06402578247724347 -0.0085315676541972973 0 -0.0085315676541972973 0.044607963943353202 0 0 0 0.027158436605149161 0.071556982623637494 -0.0058255428841871293 0 -0.0058255428841871293 0.047659036182768677 0 0 0 0.029804004701601522 0.08238320493518006 -0.0043413940005734286 0 -0.0043413940005734286 0.071555158100615524 0 0 0 0.038484590758948917 0.077446587678519085 -0.0076093354260371171 0 -0.0076093354260371171 0.065582482531568953 0 0 0 0.035757267552521899 0.089243972345760994 -0.0050276668547704073 0 -0.0050276668547704073 0.066415419349678595 0 0 0 0.038914847923859922 0.082803503615834911 -0.0083228448651723741 0 -0.0083228448651723741 0.063758051486332956 0 0 0 0.036640388775542043 0.096304634649689969 -0.0066217762883179487 0 -0.0066217762883179487 0.087408575810955957 0 0 0 0.045928302615161509 0.11499616227563306 -0.0088040522713875302 0 -0.0088040522713875302 0.090825262124780037 0 0 0 0.051455356100103294 0.084406375751339358 -0.0076454674756880614 0 -0.0076454674756880614 0.07667073308763861 0 0 0 0.040269277209744603 0.088574262100023393 -0.014525723934554979 0 -0.014525723934554979 0.077569467000893511 0 0 0 0.041535932275229337 0.034475614444261296 -0.0070878659467580631 0 -0.0070878659467580631 0.10315256009477422 0 0 0 0.034407043634758883 0.095822465257831446 -0.0093580303668494014 0 -0.0093580303668494014 0.079762558124781613 0 0 0 0.043896255845653265 0.093753203072971969 -0.0096574766078194249 0 -0.0096574766078194249 0.076257482201418814 0 0 0 0.042502671318597862 0.029484522517241159 -0.0071787209062736113 0 -0.0071787209062736113 0.088258742100581378 0 0 0 0.029435816154455632 0.10786620464391694 -0.0051349599015331204 0 -0.0051349599015331204 0.095618810386453479 0 0 0 0.050871253757592827 0.039945042150536396 -0.0068575224199070185 0 -0.0068575224199070185 0.11968301230616639 0 0 0 0.039907013614175701 0.13893543711576553 -0.0075967216785619018 0 -0.0075967216785619018 0.10497987352018978 0 0 0 0.060978827658988793 0.12220589084875988 -0.0098475655244678606 0 -0.0098475655244678606 0.10066944110752542 0 0 0 0.055718832989071099 0.10761349682590526 -0.0046645607748954099 0 -0.0046645607748954099 0.096813826145190962 0 0 0 0.051106830742774001 0.089070997606526425 -0.0018994245761250195 0 -0.0018994245761250195 0.0680051053344366 0 0 0 0.039269025735240819 0.10365645138888163 -0.0094314089694584047 0 -0.0094314089694584047 0.077959979425176851 0 0 0 0.045404107703514607 0.11324274994775435 -0.0040224325389321414 0 -0.0040224325389321414 0.10029031795390286 0 0 0 0.053383266975414234 0.11382677372011889 -0.00043466679202142089 0 -0.00043466679202142089 0.082937988335959403 0 0 0 0.049191190514019587 0.098960673228632723 -0.0087444594221343652 0 -0.0087444594221343652 0.063498133433236847 0 0 0 0.040614701665467379 0.12739842593941969 -0.0093273600570913801 0 -0.0093273600570913801 0.10828124422368113 0 0 0 0.058919917540775246 0.15435789433939584 -0.0021622179334413461 0 -0.0021622179334413461 0.1128560489170527 0 0 0 0.066803485814112093 0.13100227502397088 -0.010717682921987368 0 -0.010717682921987368 0.10201015011131098 0 0 0 0.058253106283820411 0.11417470604984768 0.0023988831060697269 0 0.0023988831060697269 0.068099112021578867 0 0 0 0.045568454517856606 0.12800149237189484 -0.011170954753872753 0 -0.011170954753872753 0.10526816085668056 0 0 0 0.058317413307143795 0.046409615638059024 -0.0067021930690177225 0 -0.0067021930690177225 0.13838922095036421 0 0 0 0.046199709147105805 0.15482605604446364 -0.0027650221208244071 0 -0.0027650221208244071 0.11944857484436167 0 0 0 0.068568657722206217 0.13429043173604338 0.002609300452639074 0 0.002609300452639074 0.11390825062192933 0 0 0 0.062049670589493067 0.11954498725153612 -0.0059191296491971634 0 -0.0059191296491971634 0.087354971790250091 0 0 0 0.051724989760446094 0.09541334165745341 0.0045885035584387612 0 0.0045885035584387612 0.069804278004216513 0 0 0 0.041304404915417425 0.092767860825779147 -0.0066237568196032548 0 -0.0066237568196032548 0.06635141866494898 0 0 0 0.039779819872681976 0.10499711644919113 0.00035196238730650364 0 0.00035196238730650364 0.083642293076416019 0 0 0 0.047159852381401801 0.074654841224262691 -0.0028670086924187377 0 -0.0028670086924187377 0.061377368720095582 0 0 0 0.034008052486089957 0.046743986764856915 -0.005693938049899927 0 -0.005693938049899927 0.037028312250412032 0 0 0 0.020943074753817514 0.043319095060786905 -0.0067711685740512936 0 -0.0067711685740512936 0.026753637138253517 0 0 0 0.017518183049760161 0.066808893410251091 -3.5745869049266799e-05 0 -3.5745869049266799e-05 0.039410390168675313 0 0 0 0.026554820894731934 0.067632782979203221 -0.0083916797686853783 0 -0.0083916797686853783 0.044089805200736354 0 0 0 0.027930647044985102 0.043197731492822911 -0.012214805844179985 0 -0.012214805844179985 0.03791721114330393 0 0 0 0.020278735659031932 0.038797879599429708 -0.010705672279311101 0 -0.010705672279311101 0.025307253898835036 0 0 0 0.016026283374566352 0.054457567316723687 -0.010981891512521047 0 -0.010981891512521047 0.038519956200140815 0 0 0 0.023244380879216098 0.079357384081940555 -0.0083834963875792923 0 -0.0083834963875792923 0.064326606054874447 0 0 0 0.035920997534204038 0.094883494577233218 -0.012156825243796299 0 -0.012156825243796299 0.068299909219132982 0 0 0 0.04079585094909155 0.074400712504393451 -0.0053689939436689649 0 -0.0053689939436689649 0.061631366091445594 0 0 0 0.034008019648959553 0.013191266085375242 -0.0028732096868129275 0 -0.0028732096868129275 0.013595786076094019 0 0 0 0.0066967630403671485 0.010456415097165328 -0.0016192102023646739 0 -0.0016192102023646739 0.0113504175103607 0 0 0 0.0054517081518816735 0.013499964946366632 -0.00097661411955884958 0 -0.00097661411955884958 0.011712778160820742 0 0 0 0.0063031857767966767 0.015506139163067978 -0.002122996976838265 0 -0.002122996976838265 0.013356732545565464 0 0 0 0.0072157179271583605 0.01410751871258964 -0.0026408458179283389 0 -0.0026408458179283389 0.012985117697581039 0 0 0 0.0067731591025426141 0.019308426755452857 -0.005432901118409883 0 -0.005432901118409883 0.015324060922369931 0 0 0 0.0086581219194554748 0.02791005642259714 -0.0040792585316873353 0 -0.0040792585316873353 0.016705802134473924 0 0 0 0.011153964639267322 0.020255617707832352 -0.0010737998569056995 0 -0.0010737998569056995 0.012518582683048507 0 0 0 0.0081935500977201592 0.02944189632862693 -0.0014612029107574642 0 -0.0014612029107574642 0.019472579618303738 0 0 0 0.012228618986732666 0.02478888779662608 -0.0082331247895051085 0 -0.0082331247895051085 0.021452695365006713 0 0 0 0.011560395790408295 0.019321606601926999 -0.011978477841822155 0 -0.011978477841822155 0.020704568580569571 0 0 0 0.010006543795624212 0.005194464004648805 -0.0075589045082253836 0 -0.0075589045082253836 0.013132516097620645 0 0 0 0.0045817450255675879 0.022403769120019151 -0.0062109517132875602 0 -0.0062109517132875602 0.016669969769057214 0 0 0 0.0097684347222690426 0.013923474099973854 -0.0085905556049912235 0 -0.0085905556049912235 0.016178978155839019 0 0 0 0.0075256130639531627 0.0090934434026165023 -0.0029587655863585471 0 -0.0029587655863585471 0.012247325333324621 0 0 0 0.0053351921839853433 -0.0027620861833121827 -0.003670454667445755 0 -0.003670454667445755 0.010291645905593987 0 0 0 0.0018823899305702293 0.0060628913409273011 -0.0036718027404358811 0 -0.0036718027404358811 0.013233304152997061 0 0 0 0.0048240488734809794 -0.014006153078784944 -0.0048936615252136439 0 -0.0048936615252136439 0.011106708402512044 0 0 0 -0.00072486116906800291 0.0058574211428293887 -0.0068664088247684107 0 -0.0068664088247684107 0.01328609902553346 0 0 0 0.0047858800420906844 0.0036421505012956823 -0.01047236957835429 0 -0.01047236957835429 0.011722826003179421 0 0 0 0.003841244126118859 -0.0079760563008608593 -0.0046859724117318535 0 -0.0046859724117318535 0.0082807959261135822 0 0 0 7.6184906313211953e-05 0.0031061368174166715 -0.011832717414721916 0 -0.011832717414721916 0.013526342933943392 0 0 0 0.004158119937839988 0.017660773877709701 -0.013192288524906282 0 -0.013192288524906282 0.01745585173891584 0 0 0 0.0087791564041566073 0.014199413893153157 -0.01670561093428688 0 -0.01670561093428688 0.015582849139733401 0 0 0 0.0074455657582215284 0.016216730962692605 -0.015674894673081724 0 -0.015674894673081724 0.020632524338607627 0 0 0 0.009212313825325058 0.0024160440266358663 -0.012818551582173487 0 -0.012818551582173487 0.011939568348312779 0 0 0 0.0035889030937368283 0.0013590809888791716 -0.016373686458261094 0 -0.016373686458261094 0.013925575728891776 0 0 0 0.0038211641794426848 0.013956393485995977 -0.019527260218281439 0 -0.019527260218281439 0.018573807991842717 0 0 0 0.0081325503694595902 -0.0044851941414856267 -0.01611744147834393 0 -0.01611744147834393 0.010502713390461382 0 0 0 0.0015043798122440499 -0.011426416701907971 -0.0096178688665680134 0 -0.0096178688665680134 0.010457299715845414 0 0 0 -0.00024227924651559762 -0.015602340215394472 -0.007583444947375062 0 -0.007583444947375062 0.0073346320884482008 0 0 0 -0.002066927031736665 -0.017502369350091196 -0.0082708702119642652 0 -0.0082708702119642652 0.010408324308381012 0 0 0 -0.0017735112604275738 -0.028958627615394195 -0.0043834478155867496 0 -0.0043834478155867496 0.007301327318346873 0 0 0 -0.0054143250742618165 -0.013453947222474172 -0.0038203962914103995 0 -0.0038203962914103995 0.0095108574260907019 0 0 0 -0.00098577244909581196 0.061984415361948098 -0.015632390755415115 0 -0.015632390755415115 0.044024690082458129 0 0 0 0.026502276361101695 0.051758747432340768 -0.014627861808774512 0 -0.014627861808774512 0.045601969020470978 0 0 0 0.024340179113202964 0.067154098528130368 -0.016655646147174408 0 -0.016655646147174408 0.059296298741307485 0 0 0 0.031612599317359602 0.063527861306604705 -0.017340240348095004 0 -0.017340240348095004 0.048837327066244107 0 0 0 0.02809129709321212 0.034259660230624767 -0.015560941643152471 0 -0.015560941643152471 0.031419204722497929 0 0 0 0.016419716238280757 0.031616606110743461 -0.015000816422752972 0 -0.015000816422752972 0.023219060627041266 0 0 0 0.013708916684446293 0.046575636261160236 -0.01749500890096467 0 -0.01749500890096467 0.031576764345710107 0 0 0 0.019538100151717419 0.038680181005155578 -0.01999654605819623 0 -0.01999654605819623 0.026231485779077968 0 0 0 0.016227916696058498 0.028057995568364053 -0.018049389129523474 0 -0.018049389129523474 0.027171899092950591 0 0 0 0.013807473665328723 0.024983379435058128 -0.016289446320096324 0 -0.016289446320096324 0.019269504170356555 0 0 0 0.011063220901353588 0.024049542258342368 -0.016686934136191933 0 -0.016686934136191933 0.02262895702608958 0 0 0 0.011669624821108046 0.053802631805089707 -0.017783714333149847 0 -0.017783714333149847 0.035586955659946184 0 0 0 0.022347396866259084 0.042996123658945118 -0.017278425301335939 0 -0.017278425301335939 0.038862748817702908 0 0 0 0.020464718119161951 0.071869513604605917 -0.012282490507115815 0 -0.012282490507115815 0.053510700279561618 0 0 0 0.031345053471041995 0.057454566513326255 -0.016718232276522582 0 -0.016718232276522582 0.047085119627326755 0 0 0 0.02613492153516328 0.065188013378915943 -0.012980672740429022 0 -0.012980672740429022 0.044204971842284557 0 0 0 0.027348246305300028 0.051384358380570982 -0.019551398074071025 0 -0.019551398074071025 0.033873115078826954 0 0 0 0.021314368364849567 0.053015562717231624 -0.015521124379096807 0 -0.015521124379096807 0.034416849857715981 0 0 0 0.021858103143736929 0.059508710810988186 -0.017673369397481153 0 -0.017673369397481153 0.033296230739678689 0 0 0 0.023201235387666719 0.037289809980413535 -0.022474371898633216 0 -0.022474371898633216 0.024274422395317297 0 0 0 0.015391058093932819 0.042538682996571375 -0.016467431680760258 0 -0.016467431680760258 0.033438826907019159 0 0 0 0.018994377475897606 0.036163481777931272 -0.02213694338424943 0 -0.02213694338424943 0.023067578346198214 0 0 0 0.014807765031032427 0.017029358558263596 -0.02191773931721519 0 -0.02191773931721519 0.016357597429863757 0 0 0 0.0083467389970318662 0.012077593129607656 -0.017300300956766268 0 -0.017300300956766268 0.014476611435272124 0 0 0 0.0066385511412199172 0.034266889988593272 -0.018207503633083877 0 -0.018207503633083877 0.022822827820070224 0 0 0 0.014272429452165874 0.020661132118692804 -0.02485593207582748 0 -0.02485593207582748 0.015759531149805106 0 0 0 0.0091051658171246164 0.029894081249857707 -0.019425725245718839 0 -0.019425725245718839 0.017937063202215553 0 0 0 0.011957786113018232 0.010149405529132516 -0.021178927137886827 0 -0.021178927137886827 0.011475238280068467 0 0 0 0.0054061609523003429 0.011411563731156815 -0.024315882311200909 0 -0.024315882311200909 0.017105770721274949 0 0 0 0.0071293336131079132 0.053207730418025304 -0.022120014501421759 0 -0.022120014501421759 0.023510326071769727 0 0 0 0.019179514122448796 0.056312115671657947 -0.017533269938559179 0 -0.017533269938559179 0.028200934379621456 0 0 0 0.021128262512819851 0.052540632428596856 -0.016658376540652248 0 -0.016658376540652248 0.033360898278236739 0 0 0 0.021475382676708232 0.031085277238494108 -0.023947955477101712 0 -0.023947955477101712 0.02056533304075514 0 0 0 0.012912652569812305 0.049756041687594399 -0.018828406761390908 0 -0.018828406761390908 0.025884935194017356 0 0 0 0.018910244220402883 -0.03156211125174313 -0.0087577667684805016 0 -0.0087577667684805016 0.0082512436931381217 0 0 0 -0.0058277168896512244 -0.041131141505534222 -0.0052291739952657901 0 -0.0052291739952657901 0.0048937469703970726 0 0 0 -0.0090593486337843428 -0.030053650940773557 -0.0047525171933127108 0 -0.0047525171933127108 0.0057605425972844793 0 0 0 -0.0060732770858724083 -0.043300539783446945 -0.0060346747419813742 0 -0.0060346747419813742 0.0082769018991268872 0 0 0 -0.0087559094710802921 -0.01935765198384598 -0.0073985909115080739 0 -0.0073985909115080739 0.0050143628497980597 0 0 0 -0.0035858222835118969 -0.0058015687582413378 -0.014757754150424129 0 -0.014757754150424129 0.0098363728677091089 0 0 0 0.0010087010273670538 -0.019386798798131988 -0.015083039233852499 0 -0.015083039233852499 0.0094220668561479926 0 0 0 -0.0024911829854959988 0.00079057362162665568 -0.014919051870739386 0 -0.014919051870739386 0.010404947166582579 0 0 0 0.002798880197052267 -0.0037096559861102829 -0.021806000009129689 0 -0.021806000009129689 0.012340784581115871 0 0 0 0.0021577821487513971 -0.0085869498048289916 -0.019739726662492851 0 -0.019739726662492851 0.010289811417011796 0 0 0 0.0004257154030457011 -0.0050527073998363221 -0.017199164909989184 0 -0.017199164909989184 0.011722524196018595 0 0 0 0.0016674541990455687 -0.0070547715629188934 -0.023428443584201736 0 -0.023428443584201736 0.01364881345561253 0 0 0 0.0016485104731734923 -0.016125036744833302 -0.014087702750500197 0 -0.014087702750500197 0.0082211913461659597 0 0 0 -0.001975961349666891 -0.027029992657163604 -0.017430876604634771 0 -0.017430876604634771 0.0087643727857427134 0 0 0 -0.0045664049678552643 -0.025579194913178227 -0.013997231613373962 0 -0.013997231613373962 0.0071906872472928818 0 0 0 -0.0045971269164712947 -0.025893985813191578 -0.014537727388564348 0 -0.014537727388564348 0.008323064085021592 0 0 0 -0.0043927304320423577 -0.04602483199467225 -0.009678788795938531 0 -0.009678788795938531 0.0061950894591376593 0 0 0 -0.0099574356338836545 -0.043339305665550859 -0.005467494499997394 0 -0.005467494499997394 0.0056866313895947429 0 0 0 -0.0094131685689890221 -0.055204309028872911 -0.0083724270801806555 0 -0.0083724270801806555 0.0063720800067232908 0 0 0 -0.012208057255537363 -0.085966998134760303 -0.0061276858199582063 0 -0.0061276858199582063 0.0049724560832359321 0 0 0 -0.020248635512881114 -0.067575526862508506 -0.0066477264475313658 0 -0.0066477264475313658 0.0057399515848235438 0 0 0 -0.015458893819421282 -0.055763936124198665 -0.0037607447375316294 0 -0.0037607447375316294 0.0044521766991137968 0 0 0 -0.012827939856271231 -0.047100696228723538 -0.015641700861957569 0 -0.015641700861957569 0.0093206410743260637 0 0 0 -0.0094450137885993546 -0.035980061399880747 -0.01132352114921098 0 -0.01132352114921098 0.0057360504933501311 0 0 0 -0.0075610027266326263 -0.012457767680779275 -0.016621031901207645 0 -0.016621031901207645 0.010199458850482124 0 0 0 -0.00056457720757419061 -0.01688990742466745 -0.021914642479990143 0 -0.021914642479990143 0.013882284922112964 0 0 0 -0.00075190562563864916 -0.015179292420254287 -0.020531881921605585 0 -0.020531881921605585 0.021175336844514225 0 0 0 0.0014990111060649847 -0.025565466407488538 -0.012572100527845964 0 -0.012572100527845964 0.0057307445629205533 0 0 0 -0.0049586804611419649 -0.027054865559072383 -0.015434863279770755 0 -0.015434863279770755 0.011209852128653108 0 0 0 -0.0039612533576048325 -0.044624217998755766 -0.0045374048724925176 0 -0.0045374048724925176 0.012360895023679208 0 0 0 -0.0080658307437691534 -0.042724227351927851 -0.015349601037907862 0 -0.015349601037907862 0.010666828256289174 0 0 0 -0.008014349773909607 -0.058321482361288646 -0.0076096273864212916 0 -0.0076096273864212916 0.0051826222464810279 0 0 0 -0.013284715028701877 -0.054685148685817787 -0.0047114965842048884 0 -0.0047114965842048884 0.0049136534052932612 0 0 0 -0.012442873820131132 -0.086985891681725852 -0.0041178715076692352 0 -0.0041178715076692352 0.0053685259676546915 0 0 0 -0.020404341428517853 0.032676663627989724 -0.022370253617754132 0 -0.022370253617754132 0.02293229325405903 0 0 0 0.013902239220512216 0.062107887445585569 -0.036779867784290016 0 -0.036779867784290016 0.039291539671069353 0 0 0 0.025349856779163737 0.031608851854753373 -0.026559308182750097 0 -0.026559308182750097 0.023421115671849346 0 0 0 0.013757491881650652 0.028233769912298201 -0.021259910068900517 0 -0.021259910068900517 0.016298480255076075 0 0 0 0.011133062541843541 0.0035541006721905855 -0.022711439034521164 0 -0.022711439034521164 0.013625834392337222 0 0 0 0.0042949837661318546 0.0053846176147413771 -0.023630740610222023 0 -0.023630740610222023 0.019358007984351944 0 0 0 0.0061856563997733927 0.024420103484795536 -0.029668373796775116 0 -0.029668373796775116 0.02567681057401483 0 0 0 0.012524228514702584 0.0041089259302404257 -0.017419673243247488 0 -0.017419673243247488 0.025212909710913722 0 0 0 0.0073304589102885509 -0.022812946725091932 -0.011502769581163613 0 -0.011502769581163613 0.012365409552827056 0 0 0 -0.0026118842930663022 -0.014368590479909571 -0.0082522079303370688 0 -0.0082522079303370688 0.018229794551786971 0 0 0 0.00096530101796934997 -0.0020401492660822307 -0.023313369832885178 0 -0.023313369832885178 0.027626871641491468 0 0 0 0.0063966805938523164 0.028347889127561435 -0.02653245100389412 0 -0.02653245100389412 0.035689074951124056 0 0 0 0.016009241019671397 0.029576639758267409 -0.023925027145222301 0 -0.023925027145222301 0.037107254383941468 0 0 0 0.016670973535552192 0.053595977814574119 -0.033519888225520683 0 -0.033519888225520683 0.053874259804046448 0 0 0 0.026867559404655128 0.071700541925053929 -0.048656212377038682 0 -0.048656212377038682 0.10340241951136192 0 0 0 0.043775740359103983 -0.011331684441136053 0.015078027484363876 0 0.015078027484363876 0.057183640388411727 0 0 0 0.011462988986818912 0.15102501138218044 -0.050592672335709431 0 -0.050592672335709431 0.048735988341271574 0 0 0 0.04994024993086299 0.0039349641623462848 -0.0016059084618264864 0 -0.0016059084618264864 0.011528811247718374 0 0 0 0.0038659438525161629 0.078826165923988875 -0.02278291813769856 0 -0.02278291813769856 0.014547545883606933 0 0 0 0.023343427951899018 0.07448927719191123 -0.019425284818720218 0 -0.019425284818720218 0.025880763890286707 0 0 0 0.025092510270549484 0.0096368720495916965 -0.0040294581594756528 0 -0.0040294581594756528 0.028817763778807452 0 0 0 0.0096136589570997855 0.10071195111527464 -0.013469430297889051 0 -0.013469430297889051 0.029586010063461954 0 0 0 0.032574490294684122 0.013393411751142881 -0.0054724567989853871 0 -0.0054724567989853871 0.040049524676839407 0 0 0 0.013360734106995571 0.075985671342933492 -0.011642392121242351 0 -0.011642392121242351 0.030703746024353329 0 0 0 0.026672354341821747 0.071466545023342515 -0.01971942117044434 0 -0.01971942117044434 0.025182775028837034 0 0 0 0.024162330013044936 0.035082599238192153 -0.010564521283780812 0 -0.010564521283780812 0.023431638065411819 0 0 0 0.014628559325901014 0.021742387688581361 -0.014818447838970267 0 -0.014818447838970267 0.031939457140177818 0 0 0 0.013420461207189788 0.035756455333923069 -0.011110931374406122 0 -0.011110931374406122 0.027507583547124681 0 0 0 0.015816009720261946 0.0047836827347341043 -0.01504602839442119 0 -0.01504602839442119 0.021423066121613876 0 0 0 0.0065516872140870125 0.034224864155072365 -0.0020253519151644389 0 -0.0020253519151644389 0.043372803410733879 0 0 0 0.019399416891451568 0.029705336313598833 -0.00073916346755176221 0 -0.00073916346755176221 0.012910025976727552 0 0 0 0.010653840572581584 0.013963266864498575 -0.0049698087394425272 0 -0.0049698087394425272 0.104958596982695 0 0 0 0.029730465961798406 0.025441558308248 0.0027206930983648403 0 0.0027206930983648403 0.04144265604932415 0 0 0 0.016721053589393034 0.037000197382022842 -0.0057925974216706533 0 -0.0057925974216706533 0.020148528269156113 0 0 0 0.014287181412794725 0.043062337496762124 -0.0078820072037471822 0 -0.0078820072037471822 0.040700545571301677 0 0 0 0.020940720767015929 0.033389300474687612 -0.010669394348003375 0 -0.010669394348003375 0.039730163374256416 0 0 0 0.018279865962235999 0.040072911064221103 -0.014934891279848983 0 -0.014934891279848983 0.043031875200309183 0 0 0 0.020776196566132575 0.040168006258440907 -0.013816404527870765 0 -0.013816404527870765 0.057079923130321987 0 0 0 0.024311982347190737 0.053516667533532188 -0.020351954808674882 0 -0.020351954808674882 0.045950413354042513 0 0 0 0.024866770221893666 0.058436268239241987 -0.019219936915636504 0 -0.019219936915636504 0.029360623127128914 0 0 0 0.02194922284159272 0.048907252844386642 -0.01370559141796629 0 -0.01370559141796629 0.027599467215683571 0 0 0 0.019126680015017591 0.051470631143172296 -0.014645450669708897 0 -0.014645450669708897 0.024441282679063925 0 0 0 0.018977978455559041 0.047068549219868014 -0.012516712452480334 0 -0.012516712452480334 0.022700032258742064 0 0 0 0.017442145369652509 0.050502630834837497 -0.014615851284634468 0 -0.014615851284634468 0.016473053892063105 0 0 0 0.016743921181725185 0.040184134500197172 -0.012942043283225818 0 -0.012942043283225818 0.023913618063243602 0 0 0 0.016024438140860187 0.049026685079496535 -0.012649687755455719 0 -0.012649687755455719 0.018176319408917341 0 0 0 0.016800751122103469 0.04857069268120226 -0.013496925751368558 0 -0.013496925751368558 0.017314311561315465 0 0 0 0.016471251060629438 0.044924038073407474 -0.013540604369373752 0 -0.013540604369373752 0.02110324558938792 0 0 0 0.016506820915698869 0.052451537533645724 -0.012476376104580966 0 -0.012476376104580966 0.01502223727671112 0 0 0 0.016868443702589213 0.052488743557470796 -0.011697425319749627 0 -0.011697425319749627 0.020167730342844803 0 0 0 0.018164118475078872 0.050560626744197479 -0.012810306004892871 0 -0.012810306004892871 0.023129690864612584 0 0 0 0.018422579402202488 0.059737208639318112 -0.012404842534398414 0 -0.012404842534398414 0.014337361802967075 0 0 0 0.018518642610571318 0.055652185712554939 -0.013821029966157028 0 -0.013821029966157028 0.01796894310301915 0 0 0 0.018405282203893522 0.054400959623601197 -0.012961915461654844 0 -0.012961915461654844 0.015896724041680799 0 0 0 0.017574420916320499 0.058747004893301896 -0.01011906416606928 0 -0.01011906416606928 0.01522000776651844 0 0 0 0.018491753164955077 0.059933890421549903 -0.010793828379284109 0 -0.010793828379284109 0.014155472501017688 0 0 0 0.018522340730641969 0.058767315234430573 -0.0023454600675017478 0 -0.0023454600675017478 0.010791923415157778 0 0 0 0.017389809662397143 0.055571380422719599 -0.0072990132358670412 0 -0.0072990132358670412 0.013366649776659689 0 0 0 0.017234507549844791 0.06203965226270261 -0.0042243804635396509 0 -0.0042243804635396509 0.018821219341730311 0 0 0 0.020215217901108196 0.054019782425578644 -0.010082681122020015 0 -0.010082681122020015 0.030252089754553069 0 0 0 0.021067968045032914 0.058133628354796435 -0.0077667861726928716 0 -0.0077667861726928716 0.023578158002876992 0 0 0 0.02042794658941835 0.052348139903308596 -0.010621607947003175 0 -0.010621607947003175 0.019683464057720423 0 0 0 0.018007900990257272 0.056267716784308752 -0.0063357568914403639 0 -0.0063357568914403639 0.02228174671916594 0 0 0 0.019637365875868701 0.056067814771490004 -0.0091578307603676357 0 -0.0091578307603676357 0.029980939243714921 0 0 0 0.021512188503801183 0.060549545209761302 -0.0064745129372269731 0 -0.0064745129372269731 0.035120223933802208 0 0 0 0.023917442285890822 0.060164943374388324 -0.0085979496521626855 0 -0.0085979496521626855 0.044264488436244198 0 0 0 0.026107357952658117 0.053243586481912603 -0.011777706338314375 0 -0.011777706338314375 0.038869476326660268 0 0 0 0.023028265702143197 0.053903845704896758 -0.010111629569286282 0 -0.010111629569286282 0.03324749736478394 0 0 0 0.021787835767420161 0.057248334335748385 -0.0079527783748021587 0 -0.0079527783748021587 0.05138178718522779 0 0 0 0.027157530380244044 0.078811587840866837 -0.0091687743825767942 0 -0.0091687743825767942 0.052767698568896182 0 0 0 0.032894821602440727 0.020829540302706773 -0.0068722224335973636 0 -0.0068722224335973636 0.062332793198494996 0 0 0 0.020790583375300441 0.062086705444952442 -0.010056546708763409 0 -0.010056546708763409 0.055190592251521897 0 0 0 0.029319324424118567 0.069076135543658768 -0.012974531029224134 0 -0.012974531029224134 0.057375547353207157 0 0 0 0.031612920724216398 0.06705968485014524 -0.01181588814485468 0 -0.01181588814485468 0.047842936863248031 0 0 0 0.028725655428348318 0.078721111843133351 -0.0083427232031937359 0 -0.0083427232031937359 0.043693601114326297 0 0 0 0.03060367823936494 0.043429947868724651 -0.01134404043024706 0 -0.01134404043024706 0.04510562302077159 0 0 0 0.022133892722374073 0.017020521022312309 -0.0063705377045705086 0 -0.0063705377045705086 0.05092679955541364 0 0 0 0.016986830144431482 0.069714007656575094 -0.010759144184805627 0 -0.010759144184805627 0.040094569981512285 0 0 0 0.027452144409521817 0.064346144645379244 -0.016508599633003052 0 -0.016508599633003052 0.028887064211905344 0 0 0 0.023308302214321008 0.082357293234361584 -0.0091804264829661864 0 -0.0091804264829661864 0.034949975287027479 0 0 0 0.029326817130347349 0.038635124659754855 -0.011580254799714779 0 -0.011580254799714779 0.034276866620872315 0 0 0 0.018227997820156772 0.042911301541397592 -0.014981373191599395 0 -0.014981373191599395 0.022297058376938989 0 0 0 0.016302089979584169 0.044575522910398367 -0.013466350698858376 0 -0.013466350698858376 0.028961631943701258 0 0 0 0.018384288713524925 0.048564929019202951 -0.011140824863646509 0 -0.011140824863646509 0.037422674655422983 0 0 0 0.021496900918656497 
</DataArray>
<DataArray type="Float64" Name="von_mises_stress" format="ascii">
0.03380706726342686 0.025605032753751051 0.038619770257475483 0.03005013828738123 0.023871776572881948 0.023881882682100668 0.031477688011661245 0.03249833416700823 0.031574659350530464 0.027316272435425858 0.036631518826229593 0.029299900380382875 0.04356469848271606 0.035951236103943601 0.049902632308620597 0.042644217924105728 0.041149345707532078 0.040289466364410033 0.019050441906031106 0.02464419538540184 0.019006980501401989 0.026836873829484076 0.024769829178752353 0.023035438069054448 0.020111890181434881 0.028388552285737414 0.025450924551871614 0.023358231181202897 0.017822395105431602 0.019964693279096616 0.022548285768756293 0.015872196297920218 0.019692417221578509 0.014087055015064527 0.022151633783668415 0.029255672127334098 0.026319319549114158 0.019450620439247078 0.027655252192803938 0.031465692204094502 0.022846736936518928 0.024837857259794101 0.02043407371544732 0.014751540813662244 0.023547073778302736 0.015877223129123721 0.014481537482037494 0.017346301836508697 0.048011247322528636 0.042321874580982112 0.059613153954870449 0.043762429854504209 0.035111667216405539 0.03551340334262832 0.03747575089666999 0.04001218313616741 0.030002871220810984 0.042299005115692338 0.032580525047805856 0.040866705918414986 0.052905763043866315 0.051013674164991828 0.050012793194644217 0.066776085154669027 0.070141970657314201 0.053211331790882152 0.058990477896545407 0.081473437884415634 0.063316218723140999 0.057657405456631401 0.065805870962082166 0.088019035664719456 0.038787516712809743 0.036467822265926264 0.046220898133079419 0.047508787424904303 0.036802519822142915 0.057761601636622195 0.044148811084106794 0.044444501624893606 0.03431822257716078 0.025858507525242842 0.023450504133492124 0.022742166953677735 0.019604137666725512 0.033970751635510221 0.011514489427997437 0.01845886870334721 0.013936412285209936 0.0065762815410721478 0.015523752054081344 0.015150369413447782 0.009311449745096614 0.0095956451465279476 0.026509426449032546 0.027909686257243802 0.014105648031584135 0.017486501310537146 0.027329566427324356 0.033794965754443893 0.030607312703855638 0.028765671177672338 0.017451747503214488 0.021654030052810223 0.010145232569146134 0.017968119392574779 0.017753003622799406 0.031401701126360336 0.036066822306998703 0.034700411152034531 0.040306079318093879 0.039099477867207508 0.019491023416039348 0.034307139151747358 0.031011234703489897 0.041210150593339157 0.047366676064023505 0.049594401650833612 0.061666985472665428 0.063312835934445408 0.092060569340310858 0.068238491267224324 0.06660482269463433 0.06878635850596472 0.060540644181702588 0.092406056958282246 0.07007478874539011 0.050524712714451608 0.040846382659820143 0.05076384798966873 0.033106807352382459 0.028969120428560646 0.027194088001929163 0.028866007827920596 0.029183010511759359 0.033531551732574293 0.038111211909788667 0.035244987044073701 0.034956543835004586 0.031797377104549565 0.032214117442360642 0.036722514554123897 0.036880960036810226 0.040991532550151928 0.042902213284382651 0.09142731166720329 0.058712036763237774 0.058131827659224429 0.043036879822945504 0.047752398991556477 0.038398304541343221 0.059647333908894963 0.035692903762538648 0.025441398003118381 0.034794234608136902 0.017537259471679421 0.024000570696687564 0.041347585993336822 0.035508662304257782 0.034828283758568265 0.021971482794491692 0.027260142852753484 0.020995341329752143 0.013824330126890771 0.015280732659197417 0.0139162688710799 0.018636119565513719 0.012079826896612971 0.011317776092847426 0.013273677676369564 0.014072141804348317 0.011684177286768292 0.01571034980352921 0.015458436928254575 0.015868483669070808 0.013767344459541229 0.013301108935339017 0.013724307169869011 0.017823133997529897 0.017947203336860392 0.018604917550394534 0.015460763015198768 0.014780724705189154 0.015080617504661385 0.018871301353875526 0.015297090193836188 0.019256840361216634 0.02462195620144212 0.021887354499321533 0.029545266359755316 0.019991670183347663 0.025189613716314407 0.015965101950080659 0.019892645291820672 0.01952908822621726 0.019529423457059741 0.019568365028884545 0.02575254596788653 0.027946923104014441 0.027178545132582152 0.023643817861968699 0.02354785873955852 0.017764937418288666 0.021478188882972527 0.024323830316628717 0.022250927216440512 0.026772936759151864 0.028304600525720064 0.02363958585737105 0.031528509708035279 0.03051949083733009 0.033211743893431733 0.0309513560914037 0.028630824469352178 0.013468192980254277 0.016806460780317747 0.015406581158363545 0.01980562470070741 0.015559392518003303 0.018336351966206997 0.018081454675216886 0.019542174703621139 0.022962591935188795 0.019604699998081187 0.025566075961683522 0.019734892211431345 0.019759610678121719 0.015851311982067458 0.01900484913551051 0.016107340299630877 0.018040306657473418 0.021001185971304601 0.016983420458206586 0.01567261025231979 0.020985072415131804 0.018355604765978816 0.022189664206903915 0.020526076784607036 0.021251229243080615 0.026275533810227705 0.020206659199374002 0.023706764235253551 0.019345484111514339 0.023619629005043767 0.018432065161409616 0.02404160707466596 0.029471286978773846 0.03129461204475617 0.027709589417497238 0.028911151532523591 0.02406428687964136 0.026376036320207318 0.020848057303406144 0.023670547333276119 0.022121948736975205 0.024686266196679029 0.027155233661719468 0.027828183606610414 0.025086135655616321 0.022614274132503692 0.026459734869848092 0.023566964638725513 0.026258764665085175 0.029663485816523675 0.030696499893055534 0.03223387055521465 0.031372053722746422 0.033871275252272529 0.033456600635267751 0.035157161442047058 0.033764898117410055 0.032132498585328781 0.030573642207091325 0.023202925837201561 0.023436970273267254 0.025967393618764156 0.022593328922078555 0.028436048269810416 0.027040285908154361 0.021625552230695625 0.028091886017094631 0.029025780960139049 0.029180630385843051 0.025662844368939765 0.027080588321839464 0.022990551076767635 0.029190258757439413 0.034671696020122073 0.032656057275468442 0.034326518552555148 0.034686619559939492 0.040281179236905988 0.033303365337815992 0.030646290438922651 0.032135789185802607 0.030422794250527734 0.026738007436208543 0.03573528533140824 0.035000922281772845 0.032362081079603547 0.04024712336375745 0.03434919677477128 0.033040276287710044 0.035348305542106731 0.039345094132215673 0.041273081730753891 0.043168260028924689 0.037109854764063088 0.037532504883412331 0.038509113599880566 0.036827519634139355 0.034531934658828568 0.033687804323483117 0.031324532698349616 0.031129870575768447 0.030239833414125141 0.034625434262251863 0.035976633827476241 0.033289442809347737 0.036273293769038026 0.034908996252409778 0.036216901997011094 0.036964768016738862 0.035528896534361705 0.038997173625299024 0.067568766788086404 0.052677124826664111 0.056301000160568715 0.053775172293279397 0.049499372005032502 0.043185945367863882 0.032323807065151561 0.038151523534360479 0.042050992166446269 0.038880625297167987 0.030112138426993645 0.030124863436498492 0.038926590914876262 0.032533488091096498 0.045131966255363878 0.057722498346557766 0.036162712074156694 0.045998348482754178 0.029001985913164875 0.027062353343411821 0.035152570803739451 0.032921027915138831 0.031081996846036009 0.024083063923937553 0.02848321149706096 0.021866722551139708 0.030546419392628418 0.022407674042441973 0.021187184690236071 0.029682017223500549 0.027284592531234393 0.02150568167891732 0.031190248386640567 0.027873722391800245 0.030775966654054503 0.030764703138029832 0.023061227731705002 0.033099279234322425 0.025885410738279865 0.030167484047289125 0.035378355468957373 0.034496851746689122 0.038139256644914958 0.034570764423277486 0.025834547553925891 0.032196721022302283 0.044274668911844513 0.044798488906462715 0.0534371593891102 0.051795116479309643 0.048659933511137836 0.046907435241988336 0.05677290425296376 0.071576472354740531 0.077683351125399522 0.096393264603475914 0.069400695502156898 0.08302757509412674 0.056774867674174348 0.065445366649194509 0.058116941388865008 0.097016570545143607 0.13523812941486144 0.095160631917966282 0.084228896291120514 0.12282428220090039 0.10731257006727624 0.075079886182257236 0.082602431577266239 0.085679474991121399 0.056445227344900442 0.055526133892314242 0.038374904190773836 0.064119300756134964 0.06196325274931181 0.053644644767859843 0.033352747734614878 0.037572576206131247 0.036327188322399992 0.050153255220939615 0.039558178484911381 0.05443363529253388 0.04468661971055328 0.032012488923691913 0.037380762039624038 0.032992857767741024 0.023927171526867977 0.039055069800415392 0.035966714329381144 0.040818143504649074 0.025474535932186539 0.026001632619479995 0.0460462534272323 0.024574056533216284 0.04134465379078775 0.028493673926880202 0.042262718602489348 0.054015178509889919 0.027830107504866922 0.047232488625327328 0.062617878803710766 0.092489918943085642 0.084207849325396961 0.10623132147346051 0.071653620418041505 0.055099411408219175 0.051846769204319375 0.088396619121376752 0.059066623549236939 0.08508274361960276 0.037446421882842168 0.055729294104390648 0.066055702108134287 0.063572611893483316 0.074020457037091994 0.072203485920536464 0.064063176603215533 0.08094971024120555 0.053954736582170502 0.086727909471762704 0.085431732056367032 0.0707275950718875 0.098073946125930539 0.085488043189182628 0.1327162605568796 0.097077292715231994 0.14241513790523391 0.1005471999963054 0.08726692157776765 0.10527920427299736 0.041060159082607781 0.044506008714684867 0.048458993045608162 0.038390622551097743 0.033632612168317942 0.02902432115923919 0.022078997125918529 0.033189455086346034 0.024199097981139173 0.024407570223933181 0.026558510721530346 0.030234449050106065 0.033911317192813741 0.030713680668309911 0.038497086594652577 0.04043115279331929 0.035642190344887741 0.037052276122843349 0.040853561208271411 0.042403036287749364 0.042521099784949272 0.03422788794117259 0.041799049207949149 0.04041213527001087 0.043702926274835151 0.053790898504194398 0.04870590338712618 0.055468057841736147 0.045718830475353314 0.060769165391464881 0.06421149538292123 0.084464831808504739 0.078763815318569394 0.082087503136418882 0.06471549097222494 0.065086407701792942 0.068648106836452547 0.074651860777148638 0.12075662397330097 0.1718733089915391 0.18979174865074047 0.13504294345550685 0.074300534575149138 0.085099770782145381 0.15023892839978975 0.086221102985543724 0.091211355646924661 0.078247265896164847 0.050337413303703879 0.068896300993965709 0.043434200626951629 0.053016438984634137 0.037792159442029828 0.05656281111167067 0.030390178592909697 0.041278525978746303 0.058349216316128993 0.043273275195461758 0.039958659356570184 0.057393444258423514 0.04520835337364712 0.04196635857159485 0.05917096479242822 0.05602289714825124 0.040647232241291027 0.054622148396782394 0.053786495039251592 0.049933131758872699 0.057057306424108639 0.062007890347962634 0.066925376425452973 0.089001898963063347 0.059717775053031545 0.068357479638025923 0.074366042225248272 0.099454694746706443 0.12174240889900093 0.10359529569147298 0.25728041502927218 0.092898307320725973 0.12626776447290786 0.24785117140909696 0.18006581970014621 0.00053109126697076887 0.29214800044133432 0.12704114124145308 0.00011080019299786661 0.029966006984018172 0.10774497412440388 0.00014398761523557024 0.034892595856296872 0.089477773399047056 0.077057948003702775 0.041361395940070274 0.043640914845649824 0.053030130114741572 0.035982069021886817 0.033246648129533408 0.036960913166731939 0.044052091583970901 0.075336433494379268 0.066795210762430515 0.071249640576218909 0.00013579719244630068 0.056988706693127146 0.059830130195252712 0.055138903303868954 0.052000019244941527 0.044583731893932409 0.00014538969540685295 0.05115787976943114 0.03656722193210895 0.042977893206543952 0.038533882722908627 0.040980965275314446 0.043223159967024943 0.044866212307396874 0.043394475957784777 0.044466833101370971 0.051594332016383589 0.049438483028473937 0.046458278972959531 0.046157418620124679 0.048361992568388218 0.048636179210078269 0.055284364900553766 0.05079627020413699 0.055478533299610978 0.048576605419675449 0.054582229837102252 0.051228941106775255 0.053273910515877362 0.058544044436092721 0.065228779665125081 0.074654400090876497 0.096510011431561432 0.11070309368190094 0.068274042806338878 0.069350249002991027 0.084674630588507147 0.07831814828022117 0.090638805162437455 0.062811864779190027 0.081714013289238718 0.056959553565644257 0.068128393900318052 0.097472793097450536 0.085274578997934308 0.1257070806584096 0.090667351361298554 0.072164681078003792 0.10929337015503317 0.089496538196930958 0.13876501957197335 0.16501366000345505 0.16695014047860327 0.13980818558168925 0.1043604677045452 0.1100673777735357 0.098189029590490598 0.085124584730337946 0.079070780426742926 0.077104277916204444 0.067233778875039313 0.058711915971485791 0.054272104440129108 0.061149039590879237 0.068479762186704887 0.049986424024585294 0.047560126062661551 0.052437220576869156 0.05329437110607417 0.069527508602153329 0.064904462406140478 0.065923980024647374 0.075566355636055835 0.050082794452096659 0.060736042673400888 0.037103139779857686 0.051889660600224194 0.048301328764910993 0.042114248264162796 0.030664008556051347 0.032027731481190563 0.039404679111974858 0.025569589586060655 0.015953112744125929 0.026765459259521271 0.043610864519231032 0.052353007973925982 0.036852906337450045 0.010377747257945134 0.0079258424838636442 0.014366213873884284 0.011843997453155319 0.0097703316537103273 0.016905255341508493 0.02229318057755536 0.014468226217449606 0.024183769245895447 0.019269318432671757 0.027102273357184545 0.023117474743105465 0.0179932350261 0.017635326334191223 0.018385517351739527 0.027089243430242795 0.028904924492124274 0.035480720009006275 0.024046475117892221 0.032241744470373035 0.031677476604595196 0.036959236280665608 0.043049809393561206 0.032030866055152013 0.040772755682919375 0.045722480786332689 0.047610063687957858 0.046851646752781868 0.046303648911091032 0.041840556871514951 0.047285224555805076 0.039453549718019426 0.040555444845750202 0.04764668254525542 0.044347983476687947 0.051389870013021262 0.048632582306500236 0.057417812320993883 0.061511366193764128 0.052241439292573209 0.044577059417893042 0.023836469074941156 0.029398258168852852 0.036313586815564687 0.025025679699408068 0.037293160313628261 0.02842327124334923 0.035523958609900819 0.018064549192719166 0.010309272063784307 0.014378483049007735 0.012324377422426005 0.017695371001671362 0.018246851546682683 0.012424420917014758 0.015695554589803522 0.012708918466401214 0.0098714261773070466 0.0092877556491444378 0.0080884084283146182 0.0073366872981264313 0.0088080089110820665 0.0087100961715311856 0.0085362948231806571 0.0083736610119694941 0.043638838697239377 0.046522897006706802 0.049479799808417081 0.048637664309273659 0.043711454046632577 0.03807264843612055 0.037141091754820908 0.041575583119934895 0.04037699490008391 0.040303236865132853 0.044411976107597846 0.04671419749424565 0.041006384802365528 0.044573299559741208 0.04620390380030636 0.043436398360839221 0.044609769731096455 0.051371721610798657 0.049984762136541031 0.051766489520002901 0.053140648164668541 0.049999485464896631 0.00014987375307664276 0.048068616760933547 0.053446299320812914 0.0528931099836819 0.00014857370999878116 0.057602886387971119 0.056895961742293812 0.00017250414446447248 0.055657509784447896 0.048802600203814273 0.058271009405444329 0.055535724513130366 0.054641321540380663 0.062358635808216607 0.05231068138096491 0.065303273270033615 0.064579248748086626 0.059811675924862667 0.06266391340048133 0.00013555971148276584 0.073832037608248441 0.067621823984948384 0.062363005650932009 0.068905312193051793 0.00049808847862041331 0.076349593233345406 0.072316029091620063 0.057648433305112337 0.071485056799755212 0.076044454456133975 0.07031439819485627 0.056722779915568851 0.038911692959139266 0.04959197461717707 0.048348593764168481 0.045492674708863444 0.046558932889849074 0.045643855442919365 0.043765302585526293 0.054097752973413925 0.039360145567893204 0.038488165300351249 0.039716900615321578 0.038032900832564845 0.034081853089171832 0.037338601727793942 0.045879388843498244 0.036891646265394373 0.050036804213872257 0.040996497747678821 0.032094937342738494 0.038333656507195821 0.052538618632934672 0.059247401394240055 0.038998446890155331 0.040093085900207659 0.043249667611127925 0.036508295908849839 0.034892009038504708 0.043396406358160215 0.037305407674291628 0.032730810166382268 0.032419503987566545 0.03580291884410252 0.036790864137693551 0.035456231124784132 0.034148269678397208 0.033163175606494733 0.034815274949824539 0.032601575050225304 0.036327110672353273 0.036066047056545418 0.034303029589414238 0.034764275189487236 0.033911067857185284 0.033245556114609352 0.03603788884501942 0.039014248870684179 0.040624211638696374 0.037973673474247703 0.039086576700161128 0.036188573498938156 0.04248686534764412 0.00013956850511639995 0.044602387549610413 0.040866686682594321 0.034577837681900217 0.035742679294806116 0.035195630072661903 0.037661962628195225 0.040318008137519144 0.039469683085931892 0.044509041945047741 0.042689275757324549 0.047961522514345795 0.057605225380665641 0.042916830397013252 0.049487905328691219 0.00015047521357069529 0.048816390046267387 0.048123308480609965 0.00014347815016876517 0.052720839314389978 0.00013067745358571597 0.068965811731387272 0.061183134853754026 0.052580007563213127 0.043424747394436615 0.053137735417836521 0.054992155844953539 0.05599935559208092 0.053123859984812963 0.063298148452226019 0.075950863432790686 0.066094160510413655 0.060712175396777812 0.064520497956160702 0.00024816768222311446 0.075254710788486348 0.064669636979400674 0.059646715539740644 0.047550868194291031 0.047301457109122105 0.050660089519893856 0.036241210072209172 0.024630690614459744 0.025499876589446035 0.03561138625442286 0.037511141869850363 0.029660486960486315 0.027150943851053884 0.03305469183208315 0.040873100138943665 0.051358367502809643 0.036950180570680675 0.0083507702787938773 0.0061794884131062466 0.0067072351835315604 0.0083098071759115134 0.0082305967073739803 0.013244572366758394 0.016385465000840625 0.010746612714384608 0.015181729839347815 0.018583417801501738 0.02306549697774999 0.015481053027677745 0.015356022327589298 0.016788188190069848 0.0078858978848163671 0.013105725669902479 0.010113306509217112 0.02335296666204531 0.014343510711732588 0.019817661759612828 0.01625099226871236 0.02277641515473031 0.024478858461006385 0.029901574863782854 0.028924005919079981 0.023955148841949294 0.030615873545020045 0.035015288631515429 0.030822993806291051 0.025233741043021621 0.023903485582955519 0.02815354932780496 0.032757396250517178 0.020983200904574204 0.04095606638333596 0.035535852077335367 0.04333470715785339 0.043046853840537851 0.031655756766039912 0.030263789490439313 0.03832346521290985 0.039738625450444584 0.034184448921818655 0.030706991367821693 0.031193829563934791 0.041195215452961009 0.036431445497838243 0.041083763414547433 0.040027191589538179 0.039794926742660518 0.04279084633685707 0.038208986757560764 0.044616833871421069 0.043350052842617615 0.035162776196090213 0.042638359577106336 0.038873749362223799 0.03076179558253779 0.036006481740113193 0.044208318127649103 0.037179197989398595 0.037096978512279444 0.042999206858013596 0.049971899656519825 0.044286894520287653 0.039618092326365255 0.04438752336446667 0.042994143018709297 0.038116730505574015 0.041866721260485337 0.032659398305328387 0.046702165006343617 0.024951390625875047 0.028944780430643587 0.036209988476548716 0.027292768099248379 0.040303516159232389 0.03789987790750754 0.033185396195161684 0.044394507741151966 0.032308646618342755 0.043511905038089382 0.037607179328019588 0.039133585464711032 0.04924812209164578 0.044507809527452966 0.056595653831284849 0.082006957575306585 0.066354530620408053 0.054096865219355819 0.056663234820561542 0.041797256482913457 0.034844042351209345 0.046384435897374787 0.047520162686573802 0.035119101110233038 0.042761407908881825 0.050619157284101969 0.053935277625939637 0.058092868898000319 0.053716223034705204 0.082850537662164311 0.042021084726605117 0.071353560217689418 0.048535949606072409 0.039833839438035083 0.040521045639331753 0.043127019132731502 0.052902532979575534 0.036029214175459852 0.036495213747621019 0.031657852789440721 0.048286191179903799 0.049077779328532287 0.045140610848794095 0.063973999007144483 0.098855213491748126 0.065834665316559973 0.13423921640623551 0.00012105135682830988 0.072117303408229014 0.059445351513709582 0.00010420994526104116 0.073481621467459457 0.00012386074270733253 0.051535327101592109 0.057939843193001536 0.025507464593820448 0.030279582842784432 0.025914039936065267 0.030491397578826962 0.021246343716933305 0.018074989455740688 0.084664692644072281 0.022222207195403167 0.022754563746815809 0.025081376452385524 0.026567204098103363 0.033277167516877065 0.037124941576984039 0.043633686603391383 0.047159634885007275 0.035635318057295882 0.039389980972475001 0.034922788707573635 0.042305286939596898 0.030948656668889667 0.038420278964432029 0.03937669547143164 0.035328340645036031 0.042452781573757002 0.039037294971925034 0.037363691387092147 0.048481337116676418 0.044461636285207065 0.043872840643845744 0.045498141973722074 0.047585133811585412 0.045223198626796544 0.042341285996266076 0.043163247257359247 0.034242051114817693 0.038650100939698936 0.038248868614475962 0.037045056426689649 0.034996652026028287 0.034391710981555447 0.033060349428908939 0.033187428389221639 0.033188228186038039 0.030872055156597557 0.04292996256229669 0.00013559361443349157 0.034622138332081588 0.04008827691485882 0.038999634230814109 0.045448686383727496 0.029632362077738474 0.00013074127292987092 0.041939016435650359 0.047998836720624577 0.052900786765831619 0.027364440759144088 0.035465377930496492 0.032632117128315444 0.030456248279527906 
</DataArray>
<DataArray type="Float64" Name="cross_section_updated" format="ascii">
1 1 1 1 1 1 1 1 1 1 1 1 1 1 1 1 1 1 1 1 1 1 1 1 1 1 1 1 1 1 1 1 1 1 1 1 1 1 1 1 1 1 1 1 1 1 1 1 1 1 1 1 1 1 1 1 1 1 1 1 1 1 1 1 1 1 1 1 1 1 1 1 1 1 1 1 1 1 1 1 1 1 1 1 1 1 1 1 1 1 1 1 1 1 1 1 1 1 1 1 1 1 1 1 1 1 1 1 1 1 1 1 1 1 1 1 1 1 1 1 1 1 1 1 1 1 1 1 1 1 1 1 1 1 1 1 1 1 1 1 1 1 1 1 1 1 1 1 1 1 1 1 1 1 1 1 1 1 1 1 1 1 1 1 1 1 1 1 1 1 1 1 1 1 1 1 1 1 1 1 1 1 1 1 1 1 1 1 1 1 1 1 1 1 1 1 1 1 1 1 1 1 1 1 1 1 1 1 1 1 1 1 1 1 1 1 1 1 1 1 1 1 1 1 1 1 1 1 1 1 1 1 1 1 1 1 1 1 1 1 1 1 1 1 1 1 1 1 1 1 1 1 1 1 1 1 1 1 1 1 1 1 1 1 1 1 1 1 1 1 1 1 1 1 1 1 1 1 1 1 1 1 1 1 1 1 1 1 1 1 1 1 1 1 1 1 1 1 1 1 1 1 1 1 1 1 1 1 1 1 1 1 1 1 1 1 1 1 1 1 1 1 1 1 1 1 1 1 1 1 1 1 1 1 1 1 1 1 1 1 1 1 1 1 1 1 1 1 1 1 1 1 1 1 1 1 1 1 1 1 1 1 1 1 1 1 1 1 1 1 1 1 1 1 1 1 1 1 1 1 1 1 1 1 1 1 1 1 1 1 1 1 1 1 1 1 1 1 1 1 1 1 1 1 1 1 1 1 1 1 1 1 1 1 1 1 1 1 1 1 1 1 1 1 1 1 1 1 1 1 1 1 1 1 1 1 1 1 1 1 1 1 1 1 1 1 1 1 1 1 1 1 1 1 1 1 1 1 1 1 1 1 1 1 1 1 1 1 1 1 1 1 1 1 1 1 1 1 1 1 1 1 1 1 1 1 1 1 1 1 1 1 1 1 1 1 1 1 1 1 1 1 1 1 1 1 1 1 1 1 1 1 1 1 1 1 1 1 1 1 1 1 1 1 1 1 1 1 1 1 1 1 1 1 1 1 1 1 0.0020306785248913719 1 1 0.0020783771006083291 1 1 0.0021088727707652914 1 1 1 1 1 1 1 1 1 1 1 1 1 0.0021346173119881112 1 1 1 1 1 0.002158507601858256 1 1 1 1 1 1 1 1 1 1 1 1 1 1 1 1 1 1 1 1 1 1 1 1 1 1 1 1 1 1 1 1 1 1 1 1 1 1 1 1 1 1 1 1 1 1 1 1 1 1 1 1 1 1 1 1 1 1 1 1 1 1 1 1 1 1 1 1 1 1 1 1 1 1 1 1 1 1 1 1 1 1 1 1 1 1 1 1 1 1 1 1 1 1 1 1 1 1 1 1 1 1 1 1 1 1 1 1 1 1 1 1 1 1 1 1 1 1 1 1 1 1 1 1 1 1 1 1 1 1 1 1 1 1 1 1 1 1 1 1 1 1 1 1 1 1 1 1 1 1 1 1 1 1 1 1 1 1 1 1 1 1 1 1 1 1 1 1 0.0021814298462634833 1 1 1 0.0022041714437118095 1 1 0.0022273624866995835 1 1 1 1 1 1 1 1 1 1 1 0.0022516944235441267 1 1 1 1 0.0022781865474620143 1 1 1 1 1 1 1 1 1 1 1 1 1 1 1 1 1 1 1 1 1 1 1 1 1 1 1 1 1 1 1 1 1 1 1 1 1 1 1 1 1 1 1 1 1 1 1 1 1 1 1 1 1 1 1 1 1 1 0.0010622468020103453 1 1 1 1 1 1 1 1 1 1 1 1 1 1 0.0010859318955750191 1 1 0.0010735286574326572 1 0.0010997199983649884 1 1 1 1 1 1 1 1 1 1 1 1 1 0.0011152368897540729 1 1 1 1 1 1 1 1 1 1 1 1 1 1 1 1 1 1 1 1 1 1 1 1 1 1 1 1 1 1 1 1 1 1 1 1 1 1 1 1 1 1 1 1 1 1 1 1 1 1 1 1 1 1 1 1 1 1 1 1 1 1 1 1 1 1 1 1 1 1 1 1 1 1 1 1 1 1 1 1 1 1 1 1 1 1 1 1 1 1 1 1 1 1 1 1 1 1 1 1 1 1 1 1 1 1 1 1 1 1 1 1 1 1 1 1 1 1 1 1 1 1 1 1 1 1 1 1 1 1 1 1 1 1 1 1 0.0010095785842440027 1 1 0.0010240051310271346 1 0.0010333609882123048 1 1 1 1 1 1 1 1 1 1 1 1 1 1 1 1 1 1 1 1 1 1 1 1 1 1 1 1 1 1 1 1 1 1 1 1 1 1 1 1 1 1 1 1 1 1 1 0.0010519277622789934 1 1 1 1 1 0.0010424249617637278 1 1 1 1 1 1 1 
</DataArray>
<DataArray type="Float64" Name="displacement_divergence" format="ascii">
-2.9306877716862234e-05 -3.179609680478201e-05 -2.4243277122156248e-05 -2.7301898375457171e-05 -2.4718619886931607e-05 -2.4702653304783228e-05 -2.2854907885496882e-05 -2.5058900111689376e-05 -2.2208892887024468e-05 -1.6257413167176647e-05 -2.4443184456644535e-05 -1.509287344343579e-05 -2.9602743124127537e-05 -2.2342874481830025e-05 -3.6518253204779163e-05 -2.9423719737510794e-05 -2.487107865923817e-05 -2.7458678370788742e-05 -2.7991088469781834e-06 -6.542413513245834e-06 -6.7076845403875061e-06 -1.3215511267668987e-05 -1.5871204127707763e-05 -9.3205313431770094e-06 -1.0581159881990874e-05 -1.430821303093557e-05 -1.4988292993901848e-05 -1.3399496589540503e-05 -4.8286385737183956e-06 -6.1677303389342172e-06 -2.8316531796972267e-06 1.0836492070149488e-06 -3.592094836894362e-07 5.1079584936598253e-07 -6.0186506773889891e-06 -1.4733798708160832e-05 -1.2135366182318847e-05 -6.527145816644038e-06 -1.3637817410526264e-05 -1.6039342060051538e-05 -1.0328283868357458e-05 -6.1427178934699297e-06 -6.1981348021074341e-06 2.5666615233817806e-07 -6.7459962110863315e-06 -2.6289597122766953e-06 6.5271914657948691e-06 1.1021775594466691e-06 -3.5279544136945949e-05 -2.718342283281733e-05 -4.122980986543358e-05 -2.7340540614786379e-05 -2.0540387961041903e-05 -2.2213387131913961e-05 -2.2529811298935555e-05 -2.486615717975197e-05 -1.7224688574191816e-05 -2.6599069044974511e-05 -2.0005156213530754e-05 -2.5126794125490745e-05 -3.5985147730209008e-05 -3.5095154255877327e-05 -3.3328970443028931e-05 -4.619865022255079e-05 -4.837651616174699e-05 -3.3992732732217101e-05 -3.880561077968916e-05 -5.3879342681042102e-05 -3.9249179345110326e-05 -3.8861680691488478e-05 -4.1128810153415765e-05 -6.06300771491258e-05 -1.9435435084106187e-05 -1.668541132137535e-05 -2.9848823144346734e-05 -2.7758616886302227e-05 -1.7892484175373267e-05 -3.3681454616741718e-05 -2.9057792461410454e-05 -2.558933831314046e-05 -1.743545374344729e-05 -9.9681623395360435e-06 -9.2005491215030106e-06 -6.0451093842477471e-06 -2.0538646617113395e-06 -1.7431780546881537e-05 5.2612078429891803e-06 1.2013176112260268e-06 1.6563338777679172e-06 1.2542810130620665e-05 8.0789323047727703e-06 6.0286169766989622e-06 1.5858949787315944e-05 1.978412204532213e-05 -7.7012693752146524e-06 -1.2010995249912826e-05 2.4424458501461375e-06 9.1092172025420142e-09 -3.2665201362252745e-06 -7.0630578588755648e-06 7.2334569291928501e-06 -5.0850441949942587e-06 3.4374827554865082e-05 7.9468054351594262e-06 1.6943192925817015e-05 2.6601063579917466e-05 3.6633271392188263e-05 3.3152157411277749e-05 3.0755456174795569e-05 3.2912119360435285e-05 5.9580272599148653e-05 6.3722706821055133e-06 1.4518710187751678e-05 1.686217011608466e-05 -4.0633105235018279e-06 -5.1827883988008529e-06 -1.8362816910006422e-05 -2.6300758208072691e-05 -2.9811380018729798e-05 -3.8999116798722614e-05 -5.8063085894415729e-05 -4.2493000995182128e-05 -4.0615098681208851e-05 -4.6267951236062801e-05 -3.6722373872012334e-05 -6.1431866377880843e-05 -4.4276851228822721e-05 -2.6027274566065657e-05 -1.5009976044204191e-05 -2.7446975997360494e-05 5.1630438631378769e-05 4.6249435266281497e-05 4.2332930816054023e-05 4.6245037155349166e-05 5.3009745996226544e-05 5.8115521766534921e-05 5.5299953047510146e-05 5.2735609960389627e-05 5.7266957039134713e-05 5.3882292461451483e-05 4.7702283084495974e-05 5.3444728525762326e-05 4.9364065323021105e-05 5.2629287341483263e-05 6.0881220084309882e-05 0.00010439437656610008 5.5293252274065069e-05 7.2106106011669973e-05 5.0461656512580604e-05 0.00010004544632557751 6.3495917719833721e-05 9.8185129226335358e-05 5.9113633114553704e-05 5.2405240680314251e-05 6.0417867610426917e-05 3.8356640836820807e-05 3.9266998318169058e-05 5.2942344402298112e-05 4.3222110382551231e-05 5.07017988704741e-05 3.2830646432373588e-05 4.426853243162993e-05 3.4497439131531273e-05 3.1048526636031033e-05 2.5259543571780208e-05 2.8945957747544868e-05 2.9525622726656427e-05 2.5962006133933415e-05 1.7387061025863387e-05 2.0787941347475778e-05 1.7242060796762788e-05 1.3330528909026708e-05 9.5763071740092912e-06 2.7044888290589319e-05 2.5694357071090782e-05 2.2457520139829155e-05 2.0166161487817506e-05 2.7435871833547126e-05 2.3935293722389923e-05 3.0800752303191141e-05 3.1233180427825401e-05 3.184093045114262e-05 3.4427296677524555e-05 3.1813639404643641e-05 4.2495367992832142e-05 3.7145638461438047e-05 3.8382805671901779e-05 4.5600628037296367e-05 3.6636699951854499e-05 5.8869326232545747e-05 4.3569033198291198e-05 5.0440889685420542e-05 3.9542603142477635e-05 4.7689969666132691e-05 4.693002113612074e-05 3.7957470764134261e-05 3.7854555476602175e-05 3.7470869612850078e-05 3.1952386052649506e-05 2.6506709683695833e-05 3.0240413365090179e-05 3.1978857664147647e-05 2.5847445356203313e-05 2.2256498416003367e-05 2.4794091899312995e-05 2.8115263517971273e-05 2.3760287844567642e-05 2.238035619430246e-05 1.9417601084705448e-05 2.4283106881325836e-05 2.4344580880868277e-05 2.7722856601772506e-05 2.6500963899022086e-05 2.6705929171164136e-05 9.8223443686584114e-06 1.2547617492152124e-05 7.8507230807762184e-06 1.4792808409285826e-05 1.6076511556492906e-05 1.7955042522449761e-05 1.9829712445061892e-05 2.0624547266720423e-05 1.8640464524222755e-05 1.6666261128197999e-05 1.778222293990202e-05 1.4863330650691007e-05 1.2359347789191118e-05 7.6328541734437384e-06 5.915712949859665e-06 6.6535144799525153e-06 1.7079261086543664e-06 3.9318049340340385e-06 1.5475876096168251e-06 4.5339482670693718e-06 9.386998527293698e-06 8.8191691695195366e-06 1.0226603252817237e-05 1.2909143393784698e-05 1.461816787043408e-05 1.6710999353796105e-05 1.543867722238298e-05 1.2691044461889361e-05 1.3171529207027997e-05 6.756905430318155e-06 5.4314932661377711e-06 -5.0114868716536398e-08 2.397687874921906e-05 2.4260905565873314e-05 2.1676574497599585e-05 2.0701156177577653e-05 1.8867573583943695e-05 2.0777979099369646e-05 1.985471670661671e-05 1.8123134774072862e-05 2.3626488977909162e-05 2.1260220962507185e-05 2.5169741445999106e-05 2.1953251396459024e-05 2.2895151643198178e-05 2.6099924243468724e-05 2.388359430638911e-05 2.9357823817288066e-05 2.2834019614819377e-05 2.6668573957125086e-05 2.5717358994923372e-05 2.5883441098808239e-05 2.4040435584563831e-05 2.7215028554773003e-05 2.4641123525333117e-05 2.4164554878018808e-05 2.1561356122286183e-05 2.4894424481736845e-05 2.4263094967783774e-05 2.8816213966158837e-05 2.804745561511688e-05 2.2498880388190627e-05 2.32577523094716e-05 2.341909418902652e-05 1.7768149494253572e-05 1.4384393460228083e-05 1.1231774903133822e-05 3.9053848276149282e-06 8.8386731028801746e-06 1.2592102882082069e-05 1.721562708884068e-05 8.6332357535943708e-06 1.5913574717578068e-05 2.0070897252577943e-05 2.3242786319890621e-05 2.3272243903357204e-05 2.2760155936741576e-05 2.8779373127072618e-05 1.7204903530818753e-05 1.2983451242556959e-05 1.6802601759621868e-05 2.0398921217143943e-05 9.5259426358523594e-06 1.7629466553337803e-05 2.3245092603655069e-05 2.3059661634109307e-05 3.4959319452430168e-05 2.635840336185673e-05 2.7671951786964645e-05 2.9022291361578121e-05 2.7739307196421783e-05 3.3759833362916462e-05 4.33654552745655e-05 3.7326255243522324e-05 4.0613648253387553e-05 3.2332853407609766e-05 3.4480183795977951e-05 4.1688848389182004e-05 3.4987050864758141e-05 3.7832683140410749e-05 3.0406104949505683e-05 3.0176595434037461e-05 2.9508102003956337e-05 3.0347898385994241e-05 2.59306311786692e-05 2.8281858584462799e-05 2.5841296123090908e-05 2.6835160087434848e-05 2.5381202955596725e-05 2.9358556165146461e-05 2.984747291762583e-05 -4.9321322856914676e-05 -3.4820771300345019e-05 -3.843752071449405e-05 -3.0478330805216707e-05 -2.9589711917475059e-05 -3.6445380284264075e-05 -3.9630835851988303e-05 -3.3546867197703682e-05 -3.0953144724822987e-05 -2.62021766032418e-05 -2.8519303398242442e-05 -2.8496474234742055e-05 -2.6364301023872035e-05 -1.6490427759549759e-05 -2.5722111693906601e-05 -3.8536750658379123e-05 -1.4736297753362963e-05 -2.9948131987977139e-05 -1.42935097741092e-05 -1.3033030376720835e-05 -1.5008054825877324e-05 -1.3041267258474194e-05 -1.636853861483907e-05 -7.0020727691702715e-06 -7.2815354965848835e-06 -2.7087948793009516e-06 -4.3665769943511748e-06 4.1427703630095449e-06 7.9393130880685626e-06 1.1036813819881717e-06 -1.9163018427286714e-06 -7.5467900242955879e-07 4.1207957117390335e-06 1.04382532025574e-05 -1.1416884747166372e-06 1.1657252385516116e-05 6.4447977094071583e-06 -1.2693299964441068e-06 1.1870359566916795e-05 -7.4764014602234641e-07 4.5401194366292681e-06 -1.5304342845130281e-05 -1.448576084905596e-05 -1.4537767575021724e-05 -9.473639325447477e-07 -1.1593028170744694e-05 -2.5774235747503876e-05 -2.2053752437586898e-05 -3.102657367949716e-05 -2.2966644624290779e-05 -3.0018290207511142e-05 -1.3349961618460635e-05 -2.6758454331871851e-05 -4.8962742854775499e-05 -4.829083683729896e-05 -6.3275483545203938e-05 -4.4626618650448913e-05 -5.5784214910975239e-05 -3.3556995316389083e-05 -4.7813435746346928e-05 -3.3888616475472807e-05 -5.2613182261522016e-05 -8.3483528227535985e-05 -4.8333627272475539e-05 -4.3880638411092125e-05 -7.5131561301498983e-05 -6.8963829623841234e-05 -4.5348637817335934e-05 -4.9065566996184079e-05 -4.4718042951248475e-05 -2.2394237784297883e-05 -2.7391924491692255e-05 -1.9373411717759734e-05 -1.5526028867671464e-05 -3.0152491084805164e-05 -1.4051019634443141e-05 1.4963927411385886e-05 3.018657968775743e-05 2.6866088335533939e-05 -5.9653295554356223e-06 2.7643557625937781e-06 -1.5044155721262565e-05 -5.8279196342691172e-06 -5.7220748633121069e-09 1.4235346642413872e-05 6.0444126313965654e-06 1.6622177212335495e-05 3.28040755245822e-05 1.9218875654507279e-05 3.5458513623774295e-05 2.0415979522125371e-05 3.784999221282683e-05 5.7017836590191043e-05 3.4648128815758351e-05 5.6705824785743873e-05 6.3158447743246756e-05 0.00010277398457582063 9.5979863379200107e-05 6.0997247342809455e-05 5.1494934069264148e-05 0.00010744127090836616 0.00016729185969786549 0.00015810212225496277 0.00016921083093541589 0.00012434495530834542 9.0967421736304094e-05 0.00010375091624236041 9.0259800202872393e-05 5.3628438394718431e-05 4.3870073163170778e-05 3.0156904463583822e-05 1.2925827174449527e-05 6.5939316833747464e-05 1.2084002926030716e-05 -2.1990030010649562e-05 -2.0836269465822799e-05 1.9522896912132354e-06 -3.2573492733727695e-06 8.4240730128726975e-06 -1.9353766854728524e-05 2.4389568079119864e-06 -1.8774782341515295e-05 -3.736787554846062e-05 -3.5586494849735185e-05 -6.71680715799504e-05 -4.86525720307781e-05 -8.0355593893413911e-05 -5.5485537608419182e-05 -3.7506293892497933e-05 -5.5610481174117143e-05 6.5828918822118088e-05 7.5996058211429081e-05 8.2133141092159421e-05 7.3345455822666311e-05 6.6096708977191976e-05 5.675904249693062e-05 4.97684287075625e-05 5.985851009364054e-05 4.3993642177114881e-05 4.8025045969018063e-05 3.6038713738324488e-05 4.6954545455248912e-05 4.203749820845697e-05 5.3611955845150669e-05 5.3848701445825364e-05 4.9251983900451326e-05 4.3873481429689942e-05 3.7559478696109177e-05 5.6750368298448946e-05 5.0102503906020754e-05 6.1364221770066575e-05 3.7541438953661897e-05 4.7869295686721783e-05 6.078387369116054e-05 7.6315552876416148e-05 9.6705991567052848e-05 7.0369020265904653e-05 7.6634344423682702e-05 8.0719185682537513e-05 9.8832497077952345e-05 0.0001108241998214786 0.0001366710787548488 0.00015032319455397509 0.00013534427222052715 0.00012180089872453436 0.00013099250791539285 0.00015761178064303385 0.00015352486795366759 0.00024836641489722554 0.00029665130713636917 0.00028336230454851304 0.0002017555864885282 0.00012139687233802114 0.00015759175791505518 0.00018676080710880739 0.00012059635434003699 0.00012489048191277014 0.00012801409257819221 9.4618806902647978e-05 0.00011306593689860254 7.9779262594726098e-05 9.1407741403049442e-05 7.2637966881342218e-05 9.7398587298990586e-05 6.1565573661558792e-05 7.2464445277282334e-05 8.8740371086393961e-05 7.0371122055117472e-05 6.5802235651527783e-05 9.3321796741800895e-05 7.1076380373525966e-05 6.3739078667345337e-05 8.0309603061884426e-05 6.1670315424724586e-05 5.1221540163821607e-05 6.5190084346005431e-05 6.9377695023897345e-05 4.8406537336160291e-05 7.1002756315938665e-05 5.9505935390286773e-05 6.7254902223635744e-05 9.9738228649749213e-05 8.9018564134917349e-05 8.7897280153044889e-05 9.4178147670914253e-05 0.00012171745215901753 0.00012953566412058476 0.00014789674607704312 0.00030656348126739772 5.2712471473593327e-05 0.0001374133001868493 0.00028763048172713299 0.00017862132550385503 0.015979148222671678 0.00024130714223114468 0.00013760526732410931 0.039115238334256133 4.8305242810456534e-05 0.00012108469147585475 0.054523209544908274 5.7476380614429124e-05 9.5908389599412428e-05 5.9034070672618085e-05 6.581756533781516e-05 7.0879816585548729e-05 6.6030096209827827e-05 6.211180356986278e-05 7.6775194706361341e-05 7.5448453979488211e-05 7.148079212131094e-05 9.6491121296074945e-05 0.0001106804325204558 0.00011366064986940354 0.067352369087826464 0.00010799140664507134 0.0001121542157609505 0.00010422947687053347 0.00011554123416226622 9.5084227966561806e-05 0.079309996999854041 0.00011580586296553634 7.652429519767101e-05 6.6379794065588493e-05 9.0851068825871029e-05 8.4171505745096942e-05 8.8012624466651183e-05 6.5782414095184101e-05 6.8403882387181798e-05 6.7500873151081237e-05 5.4295438159426704e-05 5.6952955304247687e-05 5.0654663236857646e-05 5.4879105641280311e-05 4.9095409610804669e-05 5.5221590930673337e-05 5.4915197125608804e-05 4.531733184611649e-05 5.5561222663154549e-05 4.9898639464768141e-05 5.3993394108298022e-05 5.6427972256321466e-05 6.3223080774575994e-05 -1.6425518859105454e-05 -2.0438369942189089e-05 5.8997741985886663e-07 -4.2458681636480325e-05 -4.8770220351648233e-05 -1.9404948467173716e-05 -1.8401189115687007e-05 4.5569072704005871e-06 2.0347602011603749e-05 4.4090413551328483e-05 1.4659042135289381e-05 2.709764384792139e-05 2.0034847352163633e-06 2.5607614154048771e-05 7.3977724751502221e-05 5.218785544729241e-05 0.00010237578645587127 5.46511397369867e-05 2.7024603493446897e-05 7.2803203540894074e-05 6.9218769277824181e-05 0.00013050655082936418 0.00018031009991516201 0.00013729535849632096 0.00013813887685122723 9.0338741476843386e-05 0.00010319481957174177 0.0001070814758416588 7.574991066953583e-05 7.193409764554232e-05 9.4195163408075308e-05 8.7668419025680204e-05 9.4386302037083834e-05 8.7071711622469604e-05 7.265783457695654e-05 7.0439113204273911e-05 5.292813678211926e-05 5.4229030799495833e-05 4.9686193357773543e-05 3.1039682916830574e-05 5.5214932688525849e-05 5.9581742546833331e-05 4.0068910181012682e-05 3.776223290128224e-05 1.748907920182596e-05 1.8020821730321137e-05 1.6494676198070338e-05 1.5753633910125533e-05 3.2259619174068114e-05 3.0553204635458647e-05 2.2237531057933028e-05 1.567045604694171e-05 1.1655678704771376e-05 2.4088158054077873e-06 1.3991054444851929e-05 7.4641717309311198e-06 -9.7229737725844714e-06 -2.7983102845381171e-06 6.6234844203283752e-07 2.1126585212276615e-05 1.5783732187157808e-05 2.3691738308871235e-05 1.1947000954402355e-05 1.5198866809265328e-05 7.3543464849668005e-06 1.0142368710066262e-05 1.447786132780654e-05 2.148307651331921e-05 2.3809595757766974e-05 2.9795513653139115e-05 3.5555458074917889e-05 3.528195921309726e-05 2.4739203834861501e-05 3.3387022252264224e-05 5.4399696221324196e-05 6.245889388243513e-05 7.011411575822378e-05 3.8786496043625301e-05 3.548652239169928e-05 5.0360049512734569e-05 4.9290001761750479e-05 6.3388403556489167e-05 5.5692859828554257e-05 8.2475994577416341e-05 8.173168397710177e-05 7.131701837809765e-05 8.8587575460803356e-05 0.00010606847233956065 9.7281884405011742e-05 0.00010932073993182457 7.7436812389995697e-05 9.403302476720791e-05 0.00011734641650314702 0.00010968064677091462 0.00012403856228725488 0.00011987512650136947 0.00014128418611904919 0.00015255107597398449 0.0001267111416030503 0.00010996825073932102 5.4777881201721612e-05 7.2869112576837754e-05 8.6107719137739139e-05 5.4329444607705349e-05 8.6835704807278896e-05 7.0663200108641785e-05 8.089842595308816e-05 4.3251498653030553e-05 2.5321172404531647e-05 3.3973174889235548e-05 2.6327429271951787e-05 4.3595815679338748e-05 4.4099977369571261e-05 2.8054969565376349e-05 3.46429212145314e-05 3.0063885359206399e-05 2.4181100648324599e-05 2.2325322373591919e-05 1.9413681247146611e-05 1.7360502531439323e-05 2.0199139413914699e-05 1.7626421764601295e-05 2.127171069266499e-05 1.5011463533395365e-05 6.912669546431144e-05 9.3395757305600739e-05 8.8312208500548916e-05 8.4889389884224942e-05 6.796068050511357e-05 5.6297129454284606e-05 5.6964251970078109e-05 6.0094131945204584e-05 5.0785022503685895e-05 5.0283963212624589e-05 6.4945572348903795e-05 6.4261945509631771e-05 6.6301685034637306e-05 8.1734299351010208e-05 7.7703395705691072e-05 9.3819896740771731e-05 0.00010687389017852855 0.00012392974495813739 0.00010289814249078212 0.00011393445788833185 0.00013040567620291495 0.00011451299291864481 0.090777400210106371 0.00010978323242485889 0.00013044297709319079 0.00013214669454037105 0.10214651391515486 0.00013502638587292639 0.0001401575390457075 0.11379436755168414 0.00013543987151918668 0.00010808648107317356 0.00013869388115772871 0.00011020884273605649 0.00011816940491789915 0.00013334147361752588 0.00011716835933224258 0.00015345696007039363 0.0001584599822440307 0.00014397948157736438 0.00015651085020651923 0.12580826105669085 0.00017628835492573754 0.00016748510912036082 0.0001546342220114889 0.00016961167501753911 0.13969187237133629 0.00019011073504462093 0.00017830749590224976 0.00012207047108660923 0.00017045296127970013 0.00018737034059474595 0.00017060029345502105 0.00013403899559061609 7.9152020636451726e-05 0.00011328359841927479 7.8986129782603249e-05 0.00010294605684788743 8.0603595773398335e-05 7.5358461197088311e-05 8.5184771340592679e-05 0.00010058372748563034 6.1277933906339187e-05 6.434727307355449e-05 6.5343034782595249e-05 7.2523034022089992e-05 5.5662580289428647e-05 5.6948698369926149e-05 4.6209681560339055e-05 4.8589746848446509e-05 3.7836192497460648e-05 5.194000493190503e-05 5.1190221236368583e-05 5.0966802625988241e-05 8.7627030573935805e-05 6.3254762549840141e-05 6.2082585972477334e-05 8.5196559836921127e-05 6.8815159016525273e-05 6.4920614660700913e-05 7.2440911895734275e-05 8.4260077930216814e-05 5.9004614063422757e-05 6.237444555009825e-05 5.3673346243556246e-05 5.7877736300708028e-05 5.212922691097909e-05 5.7772611967476899e-05 5.4311100435102972e-05 5.4527472652696456e-05 6.0695868792994998e-05 6.0511184977802461e-05 7.2173610019278108e-05 7.9633484632104156e-05 6.1923807093611422e-05 5.3208812610264136e-05 6.2619267054750985e-05 6.8333220907104957e-05 5.5188810646872628e-05 4.5200013258007337e-05 5.2388628340495195e-05 4.8973190725154535e-05 5.5587500012915947e-05 5.618116817117456e-05 9.2957995042380155e-05 0.062303273885790031 9.3595443923220369e-05 8.9356032032737129e-05 8.0009832035438187e-05 6.54677331753531e-05 6.7896091512873033e-05 7.451001175400382e-05 9.621147689737225e-05 8.9393168881304885e-05 9.7287119809650067e-05 9.1600971938855086e-05 0.00011482075653790357 0.00012863839025025798 0.00010067319302436116 0.00010383983068807312 0.086017609086897193 0.00010974063961413324 0.00010625667829649438 0.073589540386139074 0.00012717813439398155 0.099767534035439226 0.00015244706914747182 0.00013929708247267835 0.00012776707685693486 9.817256433810215e-05 0.00011351026925878653 0.00013345816743853573 0.0001229779762850493 0.00010153675416366863 0.00014729979385193789 0.00016700871453528048 0.00014563276570955124 0.00011392113629464177 0.00014579353326785952 0.11549927286776451 0.00017142164430551665 0.0001551241764737323 0.00012931247440111591 0.00010326101228854334 9.9449549681704819e-05 0.00011789963095350454 8.5020131215223903e-05 5.2357686884543439e-05 4.3795457624400732e-05 6.6387052236829228e-05 6.9826617612462954e-05 5.0696839147579362e-05 4.006570843641602e-05 5.811095219804014e-05 8.9802493835510128e-05 0.00010198962737272867 8.5020049122398961e-05 1.674190760091827e-05 1.3629270379704982e-05 1.5757964441991762e-05 1.8039294817894999e-05 1.6932897756356986e-05 2.1645304798639711e-05 2.7884911598169502e-05 2.048387524430104e-05 3.0571547466832484e-05 2.8900989476020322e-05 2.5016359489060799e-05 1.1454362563918438e-05 2.4421086805672299e-05 1.8814032659882421e-05 1.3337980459963256e-05 4.7059748264261807e-06 1.2060122183702327e-05 -1.8121529226703108e-06 1.1964700105226555e-05 9.6031103152967832e-06 1.9046226578295399e-07 1.0395299844599627e-05 2.1947891010391362e-05 1.8613914395553856e-05 2.3030784563313027e-05 8.9722577343428686e-06 9.5529104486067164e-06 2.0331375923648715e-05 3.7609495306095263e-06 -6.0569811628839558e-07 -5.1673175793407952e-06 -4.4337781510686222e-06 -1.3535812685654624e-05 -2.4644311227397034e-06 6.6255690902753718e-05 6.0850447783007168e-05 7.9031498293398537e-05 7.0228242733030594e-05 4.1049290595701832e-05 3.4272291711115888e-05 4.8845250379294172e-05 4.0569791740145949e-05 3.4518684163321683e-05 2.7658052253383761e-05 2.9174062052769961e-05 5.5868492165647796e-05 5.1161795297904444e-05 7.836263367760497e-05 6.5337303837907906e-05 6.8370615763249957e-05 5.3285920912123823e-05 5.4645257859342253e-05 5.8003088469166936e-05 3.847764523483223e-05 4.7485943689743642e-05 3.7019412577581588e-05 2.086684749257983e-05 1.6596377853049646e-05 3.5681073630415119e-05 2.2762914542811012e-05 2.9894465282545709e-05 1.3515402380750866e-05 1.7823334032770013e-05 4.7948785306121912e-05 5.2820656282049619e-05 5.3688456691770858e-05 3.2281631424530932e-05 4.7275610551007373e-05 -1.4569292224128009e-05 -2.2648371584460484e-05 -1.5183192714681039e-05 -2.1889773677700227e-05 -8.9645557087795341e-06 2.5217525684174263e-06 -6.2279574637403787e-06 6.9972004926310838e-06 5.3944553718783712e-06 1.0642885076143395e-06 4.1686354976141723e-06 4.1212761829338869e-06 -4.939903374167309e-06 -1.1416012419638113e-05 -1.1492817291177976e-05 -1.0981826080105764e-05 -2.489358908470908e-05 -2.3532921422472384e-05 -3.0520143138843686e-05 -5.0621588782202615e-05 -3.8647234548553049e-05 -3.2069849640677822e-05 -2.3612534471498204e-05 -1.8902506816581761e-05 -1.4114430189355459e-06 -1.879764064096701e-06 3.7475277651625354e-06 -1.2396701152854982e-05 -9.903133394011999e-06 -2.0164576859423001e-05 -2.0035874434774163e-05 -3.3211787571754562e-05 -3.1107184550327784e-05 -5.1010853571294579e-05 3.4755598051280517e-05 6.3374641947909266e-05 3.4393729704126626e-05 2.7832656354608888e-05 1.0737459415330027e-05 1.5464140999433564e-05 3.1310571286756396e-05 1.8326147275721282e-05 -6.5297107326656645e-06 2.4132525449233879e-06 1.599170148463083e-05 4.002310254917833e-05 4.1677433838880457e-05 6.716889851163794e-05 0.00010943935089775987 2.8657472467047277e-05 0.00012485062482715749 0.0096648596312904084 5.8358569879747531e-05 6.2731275676373771e-05 0.024034147392749471 8.1436225736710301e-05 0.033401835267488932 6.6680885854554267e-05 6.0405825032612136e-05 3.65713983147526e-05 3.3551153017974476e-05 3.9540024300654931e-05 1.6379218035217499e-05 4.8498542228628922e-05 2.6634601431453972e-05 7.4326164904496003e-05 4.1802633973482588e-05 3.5717953531986873e-05 5.2351801917539914e-05 4.5699664905590016e-05 5.1940491415331408e-05 6.0779955867976875e-05 6.2166925554734228e-05 5.487305710398187e-05 4.7816700037543887e-05 4.7444946138897699e-05 4.360536342413123e-05 4.1859802954312842e-05 4.0061095352150351e-05 4.2001877805258718e-05 4.1178127651573615e-05 4.1267052289247147e-05 4.2171109256472982e-05 4.5410296187697213e-05 4.605644850550622e-05 4.6296606526428181e-05 4.6013205509733893e-05 4.3936052290801254e-05 4.6229382912387786e-05 4.6305851826604816e-05 4.3474524155992804e-05 4.3086268874611988e-05 5.0538044752770537e-05 5.2669920112582242e-05 5.1069866473545957e-05 4.5019752475643221e-05 4.9093414689671652e-05 5.3780471259502901e-05 5.9793605714727333e-05 6.5268394881645231e-05 5.7570664255358135e-05 5.4469589418550449e-05 6.7893825950610066e-05 8.2237054006101869e-05 0.051976458438251105 7.329831106029646e-05 7.9032301810540899e-05 7.1814138570870829e-05 7.6509195598412354e-05 5.5334731805935141e-05 0.042467075361078722 6.8630361023804898e-05 5.8270755535802347e-05 7.3317042825868329e-05 4.5569994550391936e-05 4.0755224948960323e-05 4.5960721783812217e-05 5.3742252296641222e-05 
</DataArray>
</CellData>
</Piece>
</UnstructuredGrid>
</VTKFile>
