<?xml version="1.0"?>
<VTKFile type="UnstructuredGrid" version="0.1" byte_order="LittleEndian">
<UnstructuredGrid>
<Piece NumberOfPoints="3142" NumberOfCells="1054">
<Points>
<DataArray type="Float64" NumberOfComponents="3" format="ascii">
0.02576622439977887 0.024532886826226379 0 0 0 0 0.049999999999899652 0 0 0.02576622439977887 0.024532886826226379 0 0 0 0 0 0.050000000000207989 0 0.02576622439977887 0.024532886826226379 0 0.049999999999899652 0 0 0.053064897599215843 0.048131547304697528 0 0.02576622439977887 0.024532886826226379 0 0.053064897599215843 0.048131547304697528 0 0 0.050000000000207989 0 0 0.050000000000207989 0 0 0.10000000000041601 0 0.044310582753132287 0.101412518374475 0 0 0.10000000000041601 0 0.044310582753132287 0.101412518374475 0 0 0.15000000000062411 0 0.053064897599215843 0.048131547304697528 0 0.044310582753132287 0.101412518374475 0 0.083411279318303222 0.089699755330707398 0 0.053064897599215843 0.048131547304697528 0 0 0.050000000000207989 0 0.044310582753132287 0.101412518374475 0 0.044310582753132287 0.101412518374475 0 0.083411279318303222 0.089699755330707398 0 0.065374659239632718 0.1448908038746782 0 0.083411279318303222 0.089699755330707398 0 0.065374659239632718 0.1448908038746782 0 0.1053400320299198 0.12877248826361379 0 0.083411279318303222 0.089699755330707398 0 0.12372429750337779 0.095814237875728972 0 0.1053400320299198 0.12877248826361379 0 0.12372429750337779 0.095814237875728972 0 0.1053400320299198 0.12877248826361379 0 0.14332333627550789 0.14578431753966009 0 0.12372429750337779 0.095814237875728972 0 0.10266856499169109 0.044518360900210059 0 0.14618258501891079 0.062070108745602003 0 0.083411279318303222 0.089699755330707398 0 0.12372429750337779 0.095814237875728972 0 0.10266856499169109 0.044518360900210059 0 0.10266856499169109 0.044518360900210059 0 0.099999999999814668 0 0 0.14999999999970359 0 0 0.049999999999899652 0 0 0.053064897599215843 0.048131547304697528 0 0.099999999999814668 0 0 0.053064897599215843 0.048131547304697528 0 0.10266856499169109 0.044518360900210059 0 0.099999999999814668 0 0 0.053064897599215843 0.048131547304697528 0 0.083411279318303222 0.089699755330707398 0 0.10266856499169109 0.044518360900210059 0 0.044081577119474857 0.2271058242433576 0 0 0.20000000000083221 0 0 0.25000000000104028 0 0.044081577119474857 0.2271058242433576 0 0 0.20000000000083221 0 0.038512288486115001 0.1844147282893184 0 0.044081577119474857 0.2271058242433576 0 0.038512288486115001 0.1844147282893184 0 0.083105206071467416 0.20007701332709979 0 0.038512288486115001 0.1844147282893184 0 0 0.15000000000062411 0 0.065374659239632718 0.1448908038746782 0 0.044310582753132287 0.101412518374475 0 0 0.15000000000062411 0 0.065374659239632718 0.1448908038746782 0 0.038512288486115001 0.1844147282893184 0 0.065374659239632718 0.1448908038746782 0 0.083105206071467416 0.20007701332709979 0 0 0.20000000000083221 0 0.038512288486115001 0.1844147282893184 0 0 0.15000000000062411 0 0.065374659239632718 0.1448908038746782 0 0.1053400320299198 0.12877248826361379 0 0.106902708054812 0.16453234188234539 0 0.1053400320299198 0.12877248826361379 0 0.106902708054812 0.16453234188234539 0 0.14332333627550789 0.14578431753966009 0 0.065374659239632718 0.1448908038746782 0 0.106902708054812 0.16453234188234539 0 0.083105206071467416 0.20007701332709979 0 0.083105206071467416 0.20007701332709979 0 0.095326043202144745 0.24554465089224409 0 0.13737030665753211 0.20313708640667491 0 0.106902708054812 0.16453234188234539 0 0.083105206071467416 0.20007701332709979 0 0.13737030665753211 0.20313708640667491 0 0.044081577119474857 0.2271058242433576 0 0.083105206071467416 0.20007701332709979 0 0.095326043202144745 0.24554465089224409 0 0.044081577119474857 0.2271058242433576 0 0.095326043202144745 0.24554465089224409 0 0.049706944316556423 0.27522722923869108 0 0.095326043202144745 0.24554465089224409 0 0.14377654328998779 0.2442024734791064 0 0.13737030665753211 0.20313708640667491 0 0.17933913398461551 0.2350063570234002 0 0.14377654328998779 0.2442024734791064 0 0.13737030665753211 0.20313708640667491 0 0.17933913398461551 0.2350063570234002 0 0.13737030665753211 0.20313708640667491 0 0.18124454140915969 0.18790916706335251 0 0.18124454140915969 0.18790916706335251 0 0.14332333627550789 0.14578431753966009 0 0.18652628422869419 0.14162325200928061 0 0.106902708054812 0.16453234188234539 0 0.13737030665753211 0.20313708640667491 0 0.14332333627550789 0.14578431753966009 0 0.13737030665753211 0.20313708640667491 0 0.18124454140915969 0.18790916706335251 0 0.14332333627550789 0.14578431753966009 0 0.14332333627550789 0.14578431753966009 0 0.18652628422869419 0.14162325200928061 0 0.16141998738593399 0.10404039647458049 0 0.18652628422869419 0.14162325200928061 0 0.22985637510995899 0.1298347970200906 0 0.2185883431182947 0.18019736283949719 0 0.22985637510995899 0.1298347970200906 0 0.2185883431182947 0.18019736283949719 0 0.25557216766470708 0.15874861286892261 0 0.2185883431182947 0.18019736283949719 0 0.25557216766470708 0.15874861286892261 0 0.26429849586623999 0.19346700179430079 0 0.18124454140915969 0.18790916706335251 0 0.18652628422869419 0.14162325200928061 0 0.2185883431182947 0.18019736283949719 0 0.17933913398461551 0.2350063570234002 0 0.18124454140915969 0.18790916706335251 0 0.224700362040408 0.22206622194729711 0 0.18124454140915969 0.18790916706335251 0 0.2185883431182947 0.18019736283949719 0 0.224700362040408 0.22206622194729711 0 0.2185883431182947 0.18019736283949719 0 0.224700362040408 0.22206622194729711 0 0.26429849586623999 0.19346700179430079 0 0.224700362040408 0.22206622194729711 0 0.25195515620380449 0.25883339815888678 0 0.21049769590865089 0.26857363548218488 0 0.17933913398461551 0.2350063570234002 0 0.224700362040408 0.22206622194729711 0 0.21049769590865089 0.26857363548218488 0 0.184418230509967 0.038773194583122873 0 0.14999999999970359 0 0 0.14618258501891079 0.062070108745602003 0 0.184418230509967 0.038773194583122873 0 0.14618258501891079 0.062070108745602003 0 0.19922788606653311 0.085920220746880993 0 0.184418230509967 0.038773194583122873 0 0.14999999999970359 0 0 0.19999999999955789 0 0 0.10266856499169109 0.044518360900210059 0 0.14999999999970359 0 0 0.14618258501891079 0.062070108745602003 0 0.12372429750337779 0.095814237875728972 0 0.14618258501891079 0.062070108745602003 0 0.16141998738593399 0.10404039647458049 0 0.12372429750337779 0.095814237875728972 0 0.14332333627550789 0.14578431753966009 0 0.16141998738593399 0.10404039647458049 0 0.18652628422869419 0.14162325200928061 0 0.16141998738593399 0.10404039647458049 0 0.19922788606653311 0.085920220746880993 0 0.14618258501891079 0.062070108745602003 0 0.16141998738593399 0.10404039647458049 0 0.19922788606653311 0.085920220746880993 0 0.18652628422869419 0.14162325200928061 0 0.22985637510995899 0.1298347970200906 0 0.19922788606653311 0.085920220746880993 0 0.22985637510995899 0.1298347970200906 0 0.19922788606653311 0.085920220746880993 0 0.24218496799700481 0.089025544070598317 0 0.22985637510995899 0.1298347970200906 0 0.24218496799700481 0.089025544070598317 0 0.27474541102162192 0.11822029332053539 0 0.19922788606653311 0.085920220746880993 0 0.24218496799700481 0.089025544070598317 0 0.22668068146512929 0.045875643423131329 0 0.24218496799700481 0.089025544070598317 0 0.22668068146512929 0.045875643423131329 0 0.27499999999933927 0.060310814194988557 0 0.184418230509967 0.038773194583122873 0 0.19922788606653311 0.085920220746880993 0 0.22668068146512929 0.045875643423131329 0 0.184418230509967 0.038773194583122873 0 0.22668068146512929 0.045875643423131329 0 0.19999999999955789 0 0 0.22668068146512929 0.045875643423131329 0 0.19999999999955789 0 0 0.24999999999941211 0 0 0.24999999999941211 0 0 0.27499999999933927 0.060310814194988557 0 0.29999999999926641 0 0 0.22668068146512929 0.045875643423131329 0 0.24999999999941211 0 0 0.27499999999933927 0.060310814194988557 0 0.27499999999933927 0.060310814194988557 0 0.29999999999926641 0 0 0.32541448401678508 0.046215317981507749 0 0.29999999999926641 0 0 0.32541448401678508 0.046215317981507749 0 0.34999999999912063 0 0 0.32541448401678508 0.046215317981507749 0 0.3615861437013822 0.03582617922508851 0 0.35312867752657662 0.084946736076730367 0 0.3615861437013822 0.03582617922508851 0 0.35312867752657662 0.084946736076730367 0 0.39591832466117061 0.056982757562006353 0 0.32541448401678508 0.046215317981507749 0 0.3615861437013822 0.03582617922508851 0 0.34999999999912063 0 0 0.3615861437013822 0.03582617922508851 0 0.34999999999912063 0 0 0.3999999999989749 0 0 0.35312867752657662 0.084946736076730367 0 0.36246644853392812 0.1399454205365751 0 0.39823268594401579 0.1116623613130045 0 0.35312867752657662 0.084946736076730367 0 0.32215584939770009 0.1218492143506909 0 0.36246644853392812 0.1399454205365751 0 0.32541448401678508 0.046215317981507749 0 0.35312867752657662 0.084946736076730367 0 0.3096713403101819 0.085471541595262421 0 0.35312867752657662 0.084946736076730367 0 0.32215584939770009 0.1218492143506909 0 0.3096713403101819 0.085471541595262421 0 0.32215584939770009 0.1218492143506909 0 0.3096713403101819 0.085471541595262421 0 0.27474541102162192 0.11822029332053539 0 0.27499999999933927 0.060310814194988557 0 0.32541448401678508 0.046215317981507749 0 0.3096713403101819 0.085471541595262421 0 0.27499999999933927 0.060310814194988557 0 0.3096713403101819 0.085471541595262421 0 0.27474541102162192 0.11822029332053539 0 0.24218496799700481 0.089025544070598317 0 0.27499999999933927 0.060310814194988557 0 0.27474541102162192 0.11822029332053539 0 0.22985637510995899 0.1298347970200906 0 0.27474541102162192 0.11822029332053539 0 0.25557216766470708 0.15874861286892261 0 0.27474541102162192 0.11822029332053539 0 0.25557216766470708 0.15874861286892261 0 0.29336099386129338 0.15892013001050981 0 0.25557216766470708 0.15874861286892261 0 0.29336099386129338 0.15892013001050981 0 0.26429849586623999 0.19346700179430079 0 0.29336099386129338 0.15892013001050981 0 0.31255190597181792 0.19850845631528771 0 0.33084213324567391 0.16272720141332131 0 0.29336099386129338 0.15892013001050981 0 0.26429849586623999 0.19346700179430079 0 0.31255190597181792 0.19850845631528771 0 0.32215584939770009 0.1218492143506909 0 0.27474541102162192 0.11822029332053539 0 0.29336099386129338 0.15892013001050981 0 0.224700362040408 0.22206622194729711 0 0.28040350263641872 0.23054717217092141 0 0.25195515620380449 0.25883339815888678 0 0.224700362040408 0.22206622194729711 0 0.28040350263641872 0.23054717217092141 0 0.26429849586623999 0.19346700179430079 0 0.28040350263641872 0.23054717217092141 0 0.26429849586623999 0.19346700179430079 0 0.31255190597181792 0.19850845631528771 0 0.28040350263641872 0.23054717217092141 0 0.33758650185219202 0.23837101504325639 0 0.29132859388405002 0.27203693976649962 0 0.28040350263641872 0.23054717217092141 0 0.33758650185219202 0.23837101504325639 0 0.31255190597181792 0.19850845631528771 0 0.33758650185219202 0.23837101504325639 0 0.31255190597181792 0.19850845631528771 0 0.3572130504031617 0.1874703368446563 0 0.33758650185219202 0.23837101504325639 0 0.3572130504031617 0.1874703368446563 0 0.38831533174504851 0.2189834941785925 0 0.33758650185219202 0.23837101504325639 0 0.38831533174504851 0.2189834941785925 0 0.3786248352540974 0.27082301512024259 0 0.32215584939770009 0.1218492143506909 0 0.29336099386129338 0.15892013001050981 0 0.33084213324567391 0.16272720141332131 0 0.32215584939770009 0.1218492143506909 0 0.33084213324567391 0.16272720141332131 0 0.36246644853392812 0.1399454205365751 0 0.31255190597181792 0.19850845631528771 0 0.33084213324567391 0.16272720141332131 0 0.3572130504031617 0.1874703368446563 0 0.3572130504031617 0.1874703368446563 0 0.36246644853392812 0.1399454205365751 0 0.39801143831225599 0.16651381068160659 0 0.33084213324567391 0.16272720141332131 0 0.3572130504031617 0.1874703368446563 0 0.36246644853392812 0.1399454205365751 0 0.36246644853392812 0.1399454205365751 0 0.39801143831225599 0.16651381068160659 0 0.39823268594401579 0.1116623613130045 0 0.39801143831225599 0.16651381068160659 0 0.42905200079338551 0.19982395548231649 0 0.44288491854585582 0.14116182884956319 0 0.39801143831225599 0.16651381068160659 0 0.44288491854585582 0.14116182884956319 0 0.39823268594401579 0.1116623613130045 0 0.38831533174504851 0.2189834941785925 0 0.42377727103934271 0.25099357235810238 0 0.3786248352540974 0.27082301512024259 0 0.3572130504031617 0.1874703368446563 0 0.39801143831225599 0.16651381068160659 0 0.38831533174504851 0.2189834941785925 0 0.39801143831225599 0.16651381068160659 0 0.38831533174504851 0.2189834941785925 0 0.42905200079338551 0.19982395548231649 0 0.38831533174504851 0.2189834941785925 0 0.42905200079338551 0.19982395548231649 0 0.42377727103934271 0.25099357235810238 0 0.42905200079338551 0.19982395548231649 0 0.46429753744194407 0.22870891180733599 0 0.42377727103934271 0.25099357235810238 0 0.42905200079338551 0.19982395548231649 0 0.46429753744194407 0.22870891180733599 0 0.47357141910802508 0.1873585799078378 0 0.47357141910802508 0.1873585799078378 0 0.51729576145820033 0.1683240575987815 0 0.50760557329222289 0.20700468884612061 0 0.46429753744194407 0.22870891180733599 0 0.47357141910802508 0.1873585799078378 0 0.50760557329222289 0.20700468884612061 0 0.46429753744194407 0.22870891180733599 0 0.49695729691142171 0.25014895411178018 0 0.50760557329222289 0.20700468884612061 0 0.44288491854585582 0.14116182884956319 0 0.47357141910802508 0.1873585799078378 0 0.48466639505193998 0.1421439844745814 0 0.42905200079338551 0.19982395548231649 0 0.44288491854585582 0.14116182884956319 0 0.47357141910802508 0.1873585799078378 0 0.47357141910802508 0.1873585799078378 0 0.48466639505193998 0.1421439844745814 0 0.51729576145820033 0.1683240575987815 0 0.44288491854585582 0.14116182884956319 0 0.48466639505193998 0.1421439844745814 0 0.47881186583059909 0.093591717165689425 0 0.48466639505193998 0.1421439844745814 0 0.47881186583059909 0.093591717165689425 0 0.51076801031701946 0.1202837388510348 0 0.44288491854585582 0.14116182884956319 0 0.47881186583059909 0.093591717165689425 0 0.43698630808430822 0.080423614171545449 0 0.47881186583059909 0.093591717165689425 0 0.47040171442036788 0.044141676406503738 0 0.43698630808430822 0.080423614171545449 0 0.47881186583059909 0.093591717165689425 0 0.47040171442036788 0.044141676406503738 0 0.52375890611712683 0.059318771819432882 0 0.47040171442036788 0.044141676406503738 0 0.49999999999869432 0 0 0.52375890611712683 0.059318771819432882 0 0.47040171442036788 0.044141676406503738 0 0.49999999999869432 0 0 0.44999999999882923 0 0 0.47040171442036788 0.044141676406503738 0 0.44999999999882923 0 0 0.4320097814748517 0.037406712692169303 0 0.47040171442036788 0.044141676406503738 0 0.4320097814748517 0.037406712692169303 0 0.43698630808430822 0.080423614171545449 0 0.4320097814748517 0.037406712692169303 0 0.3999999999989749 0 0 0.39591832466117061 0.056982757562006353 0 0.4320097814748517 0.037406712692169303 0 0.39591832466117061 0.056982757562006353 0 0.43698630808430822 0.080423614171545449 0 0.44999999999882923 0 0 0.4320097814748517 0.037406712692169303 0 0.3999999999989749 0 0 0.3615861437013822 0.03582617922508851 0 0.3999999999989749 0 0 0.39591832466117061 0.056982757562006353 0 0.35312867752657662 0.084946736076730367 0 0.39591832466117061 0.056982757562006353 0 0.39823268594401579 0.1116623613130045 0 0.44288491854585582 0.14116182884956319 0 0.39823268594401579 0.1116623613130045 0 0.43698630808430822 0.080423614171545449 0 0.39591832466117061 0.056982757562006353 0 0.39823268594401579 0.1116623613130045 0 0.43698630808430822 0.080423614171545449 0 0.42161023666869668 0.39493916313643851 0 0.38707855792647411 0.42299362914874578 0 0.43249999999999988 0.43937499999999979 0 0.42161023666869668 0.39493916313643851 0 0.38083244760691543 0.38531983672244652 0 0.38707855792647411 0.42299362914874578 0 0.42161023666869668 0.39493916313643851 0 0.38083244760691543 0.38531983672244652 0 0.40076539126862748 0.34589349467022118 0 0.38707855792647411 0.42299362914874578 0 0.3908716102680424 0.47010282357248828 0 0.43249999999999988 0.43937499999999979 0 0.3908716102680424 0.47010282357248828 0 0.43507373378304309 0.49699695397193322 0 0.38244435121258652 0.51653317813019495 0 0.3908716102680424 0.47010282357248828 0 0.43507373378304309 0.49699695397193322 0 0.43249999999999988 0.43937499999999979 0 0.43507373378304309 0.49699695397193322 0 0.43249999999999988 0.43937499999999979 0 0.46111841286828259 0.46690301029591341 0 0.43249999999999988 0.43937499999999979 0 0.46111841286828259 0.46690301029591341 0 0.48858720058566618 0.43964267759203868 0 0.43507373378304309 0.49699695397193322 0 0.46111841286828259 0.46690301029591341 0 0.49102375406324739 0.49123754822244059 0 0.46111841286828259 0.46690301029591341 0 0.49102375406324739 0.49123754822244059 0 0.48858720058566618 0.43964267759203868 0 0.48858720058566618 0.43964267759203868 0 0.46655310992796922 0.39650496622958609 0 0.52289427570932567 0.3932284363388488 0 0.43249999999999988 0.43937499999999979 0 0.48858720058566618 0.43964267759203868 0 0.46655310992796922 0.39650496622958609 0 0.42161023666869668 0.39493916313643851 0 0.43249999999999988 0.43937499999999979 0 0.46655310992796922 0.39650496622958609 0 0.42161023666869668 0.39493916313643851 0 0.46655310992796922 0.39650496622958609 0 0.4409427642593301 0.35743108089689513 0 0.46655310992796922 0.39650496622958609 0 0.49077833859261139 0.35229981449445641 0 0.52289427570932567 0.3932284363388488 0 0.49077833859261139 0.35229981449445641 0 0.46226845272279993 0.31901800744800313 0 0.5 0.29999999999999999 0 0.49077833859261139 0.35229981449445641 0 0.46226845272279993 0.31901800744800313 0 0.4409427642593301 0.35743108089689513 0 0.46226845272279993 0.31901800744800313 0 0.4409427642593301 0.35743108089689513 0 0.41914690343363781 0.30688979866601612 0 0.46655310992796922 0.39650496622958609 0 0.49077833859261139 0.35229981449445641 0 0.4409427642593301 0.35743108089689513 0 0.49695729691142171 0.25014895411178018 0 0.4604742573284204 0.27846934318264788 0 0.5 0.29999999999999999 0 0.46429753744194407 0.22870891180733599 0 0.49695729691142171 0.25014895411178018 0 0.4604742573284204 0.27846934318264788 0 0.46226845272279993 0.31901800744800313 0 0.4604742573284204 0.27846934318264788 0 0.5 0.29999999999999999 0 0.46226845272279993 0.31901800744800313 0 0.4604742573284204 0.27846934318264788 0 0.41914690343363781 0.30688979866601612 0 0.46429753744194407 0.22870891180733599 0 0.4604742573284204 0.27846934318264788 0 0.42377727103934271 0.25099357235810238 0 0.4604742573284204 0.27846934318264788 0 0.42377727103934271 0.25099357235810238 0 0.41914690343363781 0.30688979866601612 0 0.42377727103934271 0.25099357235810238 0 0.41914690343363781 0.30688979866601612 0 0.3786248352540974 0.27082301512024259 0 0.41914690343363781 0.30688979866601612 0 0.3786248352540974 0.27082301512024259 0 0.36575549820117997 0.31677992835137742 0 0.42161023666869668 0.39493916313643851 0 0.4409427642593301 0.35743108089689513 0 0.40076539126862748 0.34589349467022118 0 0.4409427642593301 0.35743108089689513 0 0.41914690343363781 0.30688979866601612 0 0.40076539126862748 0.34589349467022118 0 0.41914690343363781 0.30688979866601612 0 0.40076539126862748 0.34589349467022118 0 0.36575549820117997 0.31677992835137742 0 0.40076539126862748 0.34589349467022118 0 0.36575549820117997 0.31677992835137742 0 0.33277555741076909 0.36432196682010132 0 0.38083244760691543 0.38531983672244652 0 0.40076539126862748 0.34589349467022118 0 0.33277555741076909 0.36432196682010132 0 0.36575549820117997 0.31677992835137742 0 0.32752639306529541 0.32610012995269699 0 0.33277555741076909 0.36432196682010132 0 0.32752639306529541 0.32610012995269699 0 0.33277555741076909 0.36432196682010132 0 0.29644548887253103 0.34914008784168082 0 0.33758650185219202 0.23837101504325639 0 0.3786248352540974 0.27082301512024259 0 0.33402499257867951 0.28911035184473982 0 0.3786248352540974 0.27082301512024259 0 0.36575549820117997 0.31677992835137742 0 0.33402499257867951 0.28911035184473982 0 0.36575549820117997 0.31677992835137742 0 0.32752639306529541 0.32610012995269699 0 0.33402499257867951 0.28911035184473982 0 0.32752639306529541 0.32610012995269699 0 0.33402499257867951 0.28911035184473982 0 0.29348325746214782 0.31350119524708198 0 0.33758650185219202 0.23837101504325639 0 0.33402499257867951 0.28911035184473982 0 0.29132859388405002 0.27203693976649962 0 0.33402499257867951 0.28911035184473982 0 0.29132859388405002 0.27203693976649962 0 0.29348325746214782 0.31350119524708198 0 0.29132859388405002 0.27203693976649962 0 0.29348325746214782 0.31350119524708198 0 0.24432083401701241 0.3006253385567515 0 0.29132859388405002 0.27203693976649962 0 0.25195515620380449 0.25883339815888678 0 0.24432083401701241 0.3006253385567515 0 0.28040350263641872 0.23054717217092141 0 0.29132859388405002 0.27203693976649962 0 0.25195515620380449 0.25883339815888678 0 0.33277555741076909 0.36432196682010132 0 0.29644548887253103 0.34914008784168082 0 0.27866744612395528 0.38416094670951489 0 0.32752639306529541 0.32610012995269699 0 0.29644548887253103 0.34914008784168082 0 0.29348325746214782 0.31350119524708198 0 0.29644548887253103 0.34914008784168082 0 0.29348325746214782 0.31350119524708198 0 0.25966125648670141 0.34351016742083729 0 0.29348325746214782 0.31350119524708198 0 0.25966125648670141 0.34351016742083729 0 0.24432083401701241 0.3006253385567515 0 0.29644548887253103 0.34914008784168082 0 0.25966125648670141 0.34351016742083729 0 0.27866744612395528 0.38416094670951489 0 0.25966125648670141 0.34351016742083729 0 0.27866744612395528 0.38416094670951489 0 0.22033343844674469 0.36963382230740238 0 0.27866744612395528 0.38416094670951489 0 0.29124338931648802 0.43334555462578611 0 0.24049127783545701 0.41270748208749802 0 0.29124338931648802 0.43334555462578611 0 0.25982634974572738 0.46097799597715272 0 0.24049127783545701 0.41270748208749802 0 0.27866744612395528 0.38416094670951489 0 0.29124338931648802 0.43334555462578611 0 0.31778888742534622 0.40581751814196781 0 0.33277555741076909 0.36432196682010132 0 0.27866744612395528 0.38416094670951489 0 0.31778888742534622 0.40581751814196781 0 0.33277555741076909 0.36432196682010132 0 0.31778888742534622 0.40581751814196781 0 0.35221190152536241 0.40457127605439203 0 0.31778888742534622 0.40581751814196781 0 0.35221190152536241 0.40457127605439203 0 0.34258405725730701 0.4444034294386992 0 0.29124338931648802 0.43334555462578611 0 0.31778888742534622 0.40581751814196781 0 0.34258405725730701 0.4444034294386992 0 0.38707855792647411 0.42299362914874578 0 0.35221190152536241 0.40457127605439203 0 0.34258405725730701 0.4444034294386992 0 0.38083244760691543 0.38531983672244652 0 0.38707855792647411 0.42299362914874578 0 0.35221190152536241 0.40457127605439203 0 0.38083244760691543 0.38531983672244652 0 0.33277555741076909 0.36432196682010132 0 0.35221190152536241 0.40457127605439203 0 0.3908716102680424 0.47010282357248828 0 0.35024835142131061 0.48654922671676981 0 0.38244435121258652 0.51653317813019495 0 0.3908716102680424 0.47010282357248828 0 0.35024835142131061 0.48654922671676981 0 0.34258405725730701 0.4444034294386992 0 0.38707855792647411 0.42299362914874578 0 0.3908716102680424 0.47010282357248828 0 0.34258405725730701 0.4444034294386992 0 0.29124338931648802 0.43334555462578611 0 0.34258405725730701 0.4444034294386992 0 0.31068898841644388 0.47541502461811092 0 0.35024835142131061 0.48654922671676981 0 0.31068898841644388 0.47541502461811092 0 0.33190227185843768 0.52715113583864037 0 0.35024835142131061 0.48654922671676981 0 0.34258405725730701 0.4444034294386992 0 0.31068898841644388 0.47541502461811092 0 0.31068898841644388 0.47541502461811092 0 0.25982634974572738 0.46097799597715272 0 0.28307294598219601 0.50789252727458634 0 0.29124338931648802 0.43334555462578611 0 0.31068898841644388 0.47541502461811092 0 0.25982634974572738 0.46097799597715272 0 0.25982634974572738 0.46097799597715272 0 0.23975172658309729 0.49475499200540818 0 0.28307294598219601 0.50789252727458634 0 0.23975172658309729 0.49475499200540818 0 0.19604738184454831 0.47787523520405789 0 0.22278230690790279 0.44824268025881547 0 0.19604738184454831 0.47787523520405789 0 0.22278230690790279 0.44824268025881547 0 0.191953871957803 0.42546416763755879 0 0.25982634974572738 0.46097799597715272 0 0.22278230690790279 0.44824268025881547 0 0.24049127783545701 0.41270748208749802 0 0.25982634974572738 0.46097799597715272 0 0.23975172658309729 0.49475499200540818 0 0.22278230690790279 0.44824268025881547 0 0.27866744612395528 0.38416094670951489 0 0.24049127783545701 0.41270748208749802 0 0.22033343844674469 0.36963382230740238 0 0.191953871957803 0.42546416763755879 0 0.1650278706801647 0.38791388161335733 0 0.22033343844674469 0.36963382230740238 0 0.24049127783545701 0.41270748208749802 0 0.191953871957803 0.42546416763755879 0 0.22033343844674469 0.36963382230740238 0 0.22278230690790279 0.44824268025881547 0 0.24049127783545701 0.41270748208749802 0 0.191953871957803 0.42546416763755879 0 0.191953871957803 0.42546416763755879 0 0.13773355295499351 0.42497777642586831 0 0.15801167086041079 0.46008690540259539 0 0.191953871957803 0.42546416763755879 0 0.1650278706801647 0.38791388161335733 0 0.13773355295499351 0.42497777642586831 0 0.1650278706801647 0.38791388161335733 0 0.13773355295499351 0.42497777642586831 0 0.1117088112799664 0.38831403004970022 0 0.13773355295499351 0.42497777642586831 0 0.15801167086041079 0.46008690540259539 0 0.113541300460994 0.46208784312094731 0 0.15801167086041079 0.46008690540259539 0 0.113541300460994 0.46208784312094731 0 0.1216098864341134 0.50637075089503902 0 0.15801167086041079 0.46008690540259539 0 0.1216098864341134 0.50637075089503902 0 0.16618607197337229 0.50652878253548905 0 0.19604738184454831 0.47787523520405789 0 0.15801167086041079 0.46008690540259539 0 0.16618607197337229 0.50652878253548905 0 0.19604738184454831 0.47787523520405789 0 0.191953871957803 0.42546416763755879 0 0.15801167086041079 0.46008690540259539 0 0.25195515620380449 0.25883339815888678 0 0.21049769590865089 0.26857363548218488 0 0.24432083401701241 0.3006253385567515 0 0.21049769590865089 0.26857363548218488 0 0.24432083401701241 0.3006253385567515 0 0.19670163708476801 0.31472518408333222 0 0.21049769590865089 0.26857363548218488 0 0.19670163708476801 0.31472518408333222 0 0.168349569971391 0.28054490850913671 0 0.19670163708476801 0.31472518408333222 0 0.22615676742807109 0.33458786033114157 0 0.18434624290945251 0.35208838264196463 0 0.24432083401701241 0.3006253385567515 0 0.19670163708476801 0.31472518408333222 0 0.22615676742807109 0.33458786033114157 0 0.25966125648670141 0.34351016742083729 0 0.24432083401701241 0.3006253385567515 0 0.22615676742807109 0.33458786033114157 0 0.25966125648670141 0.34351016742083729 0 0.22615676742807109 0.33458786033114157 0 0.22033343844674469 0.36963382230740238 0 0.22615676742807109 0.33458786033114157 0 0.22033343844674469 0.36963382230740238 0 0.18434624290945251 0.35208838264196463 0 0.1650278706801647 0.38791388161335733 0 0.22033343844674469 0.36963382230740238 0 0.18434624290945251 0.35208838264196463 0 0.1650278706801647 0.38791388161335733 0 0.18434624290945251 0.35208838264196463 0 0.14223753364722069 0.3341983344262433 0 0.1650278706801647 0.38791388161335733 0 0.14223753364722069 0.3341983344262433 0 0.1117088112799664 0.38831403004970022 0 0.19670163708476801 0.31472518408333222 0 0.18434624290945251 0.35208838264196463 0 0.14223753364722069 0.3341983344262433 0 0.19670163708476801 0.31472518408333222 0 0.14223753364722069 0.3341983344262433 0 0.168349569971391 0.28054490850913671 0 0.14223753364722069 0.3341983344262433 0 0.168349569971391 0.28054490850913671 0 0.1247745017231483 0.27198077544791172 0 0.14377654328998779 0.2442024734791064 0 0.168349569971391 0.28054490850913671 0 0.1247745017231483 0.27198077544791172 0 0.17933913398461551 0.2350063570234002 0 0.21049769590865089 0.26857363548218488 0 0.168349569971391 0.28054490850913671 0 0.17933913398461551 0.2350063570234002 0 0.14377654328998779 0.2442024734791064 0 0.168349569971391 0.28054490850913671 0 0.095326043202144745 0.24554465089224409 0 0.093851963071650835 0.30582068233324772 0 0.049706944316556423 0.27522722923869108 0 0.095326043202144745 0.24554465089224409 0 0.14377654328998779 0.2442024734791064 0 0.1247745017231483 0.27198077544791172 0 0.095326043202144745 0.24554465089224409 0 0.1247745017231483 0.27198077544791172 0 0.093851963071650835 0.30582068233324772 0 0.14223753364722069 0.3341983344262433 0 0.1247745017231483 0.27198077544791172 0 0.093851963071650835 0.30582068233324772 0 0.093851963071650835 0.30582068233324772 0 0.046389130980076937 0.32668781832131749 0 0.049706944316556423 0.27522722923869108 0 0.093851963071650835 0.30582068233324772 0 0.087545339447545459 0.35122518864182262 0 0.046389130980076937 0.32668781832131749 0 0.14223753364722069 0.3341983344262433 0 0.093851963071650835 0.30582068233324772 0 0.087545339447545459 0.35122518864182262 0 0.14223753364722069 0.3341983344262433 0 0.087545339447545459 0.35122518864182262 0 0.1117088112799664 0.38831403004970022 0 0.087545339447545459 0.35122518864182262 0 0.1117088112799664 0.38831403004970022 0 0.050583896093752537 0.38543522283434112 0 0.087545339447545459 0.35122518864182262 0 0.046389130980076937 0.32668781832131749 0 0.050583896093752537 0.38543522283434112 0 0 0.35000000000145642 0 0.046389130980076937 0.32668781832131749 0 0.050583896093752537 0.38543522283434112 0 0 0.35000000000145642 0 0.046389130980076937 0.32668781832131749 0 0 0.30000000000124832 0 0.046389130980076937 0.32668781832131749 0 0 0.30000000000124832 0 0.049706944316556423 0.27522722923869108 0 0 0.30000000000124832 0 0 0.25000000000104028 0 0.049706944316556423 0.27522722923869108 0 0.044081577119474857 0.2271058242433576 0 0 0.25000000000104028 0 0.049706944316556423 0.27522722923869108 0 0.068743045408989428 0.48853989837882689 0 0.113541300460994 0.46208784312094731 0 0.078358742472063481 0.43365249433908948 0 0.068743045408989428 0.48853989837882689 0 0.113541300460994 0.46208784312094731 0 0.1216098864341134 0.50637075089503902 0 0.13773355295499351 0.42497777642586831 0 0.113541300460994 0.46208784312094731 0 0.078358742472063481 0.43365249433908948 0 0.13773355295499351 0.42497777642586831 0 0.1117088112799664 0.38831403004970022 0 0.078358742472063481 0.43365249433908948 0 0.1117088112799664 0.38831403004970022 0 0.078358742472063481 0.43365249433908948 0 0.050583896093752537 0.38543522283434112 0 0.078358742472063481 0.43365249433908948 0 0.035463093262830522 0.42673416072819947 0 0.050583896093752537 0.38543522283434112 0 0 0.35000000000145642 0 0.050583896093752537 0.38543522283434112 0 0 0.40000000000166441 0 0.035463093262830522 0.42673416072819947 0 0.050583896093752537 0.38543522283434112 0 0 0.40000000000166441 0 0.035463093262830522 0.42673416072819947 0 0 0.40000000000166441 0 0 0.45000000000187229 0 0.035463093262830522 0.42673416072819947 0 0 0.45000000000187229 0 0.033550201249889847 0.46247875832467239 0 0.068743045408989428 0.48853989837882689 0 0.033550201249889847 0.46247875832467239 0 0 0.50000000000205869 0 0.068743045408989428 0.48853989837882689 0 0.078358742472063481 0.43365249433908948 0 0.033550201249889847 0.46247875832467239 0 0.078358742472063481 0.43365249433908948 0 0.035463093262830522 0.42673416072819947 0 0.033550201249889847 0.46247875832467239 0 0 0.45000000000187229 0 0.033550201249889847 0.46247875832467239 0 0 0.50000000000205869 0 0.068743045408989428 0.48853989837882689 0 0 0.50000000000205869 0 0.044576108720083309 0.53509043209532614 0 0 0.50000000000205869 0 0 0.55000000000173355 0 0.044576108720083309 0.53509043209532614 0 0 0.55000000000173355 0 0.044576108720083309 0.53509043209532614 0 0.034381862692950467 0.57372682250960894 0 0.044576108720083309 0.53509043209532614 0 0.077693244765132896 0.56932317963405099 0 0.034381862692950467 0.57372682250960894 0 0.068743045408989428 0.48853989837882689 0 0.044576108720083309 0.53509043209532614 0 0.085622222639554768 0.53333248912060549 0 0.068743045408989428 0.48853989837882689 0 0.085622222639554768 0.53333248912060549 0 0.1216098864341134 0.50637075089503902 0 0.044576108720083309 0.53509043209532614 0 0.085622222639554768 0.53333248912060549 0 0.077693244765132896 0.56932317963405099 0 0.085622222639554768 0.53333248912060549 0 0.1154888278694548 0.56733818459978413 0 0.077693244765132896 0.56932317963405099 0 0.085622222639554768 0.53333248912060549 0 0.1216098864341134 0.50637075089503902 0 0.1154888278694548 0.56733818459978413 0 0.1024350934457823 0.60772393977513839 0 0.1154888278694548 0.56733818459978413 0 0.077693244765132896 0.56932317963405099 0 0.1024350934457823 0.60772393977513839 0 0.050069554451969707 0.61308520079857043 0 0.086179601630648681 0.64647209519980475 0 0.1024350934457823 0.60772393977513839 0 0.077693244765132896 0.56932317963405099 0 0.050069554451969707 0.61308520079857043 0 0.077693244765132896 0.56932317963405099 0 0.050069554451969707 0.61308520079857043 0 0.034381862692950467 0.57372682250960894 0 0 0.55000000000173355 0 0.034381862692950467 0.57372682250960894 0 0 0.60000000000138687 0 0.050069554451969707 0.61308520079857043 0 0 0.60000000000138687 0 0 0.65000000000104008 0 0.050069554451969707 0.61308520079857043 0 0.034381862692950467 0.57372682250960894 0 0 0.60000000000138687 0 0 0.65000000000104008 0 0.046634677244967337 0.671418230738282 0 0 0.7000000000006934 0 0.050069554451969707 0.61308520079857043 0 0.046634677244967337 0.671418230738282 0 0.086179601630648681 0.64647209519980475 0 0.050069554451969707 0.61308520079857043 0 0 0.65000000000104008 0 0.046634677244967337 0.671418230738282 0 0 0.7000000000006934 0 0.049706944316475897 0.72477277076253799 0 0 0.75000000000034661 0 0.046634677244967337 0.671418230738282 0 0 0.7000000000006934 0 0.049706944316475897 0.72477277076253799 0 0.049706944316475897 0.72477277076253799 0 0 0.75000000000034661 0 0.04408157711937423 0.7728941757575627 0 0.049706944316475897 0.72477277076253799 0 0.1020579365089687 0.69352219419301997 0 0.090953281884486245 0.7564451946902494 0 0.1020579365089687 0.69352219419301997 0 0.1215415378367805 0.72939333680004137 0 0.090953281884486245 0.7564451946902494 0 0.046634677244967337 0.671418230738282 0 0.049706944316475897 0.72477277076253799 0 0.1020579365089687 0.69352219419301997 0 0.1215415378367805 0.72939333680004137 0 0.090953281884486245 0.7564451946902494 0 0.14335651144331049 0.75565258250209677 0 0.046634677244967337 0.671418230738282 0 0.1020579365089687 0.69352219419301997 0 0.086179601630648681 0.64647209519980475 0 0.1020579365089687 0.69352219419301997 0 0.086179601630648681 0.64647209519980475 0 0.1241190223511371 0.64391885572885044 0 0.1024350934457823 0.60772393977513839 0 0.086179601630648681 0.64647209519980475 0 0.1241190223511371 0.64391885572885044 0 0.1020579365089687 0.69352219419301997 0 0.1241190223511371 0.64391885572885044 0 0.16500388252850301 0.66612077714085194 0 0.1241190223511371 0.64391885572885044 0 0.16500388252850301 0.66612077714085194 0 0.15720202157091859 0.60665697304410315 0 0.16500388252850301 0.66612077714085194 0 0.19914261668318661 0.62286739485272158 0 0.15720202157091859 0.60665697304410315 0 0.1020579365089687 0.69352219419301997 0 0.16500388252850301 0.66612077714085194 0 0.15332765547575641 0.71200081858233666 0 0.1215415378367805 0.72939333680004137 0 0.15332765547575641 0.71200081858233666 0 0.14335651144331049 0.75565258250209677 0 0.1020579365089687 0.69352219419301997 0 0.1215415378367805 0.72939333680004137 0 0.15332765547575641 0.71200081858233666 0 0.16500388252850301 0.66612077714085194 0 0.15332765547575641 0.71200081858233666 0 0.19068556247388771 0.71028988922845504 0 0.15332765547575641 0.71200081858233666 0 0.14335651144331049 0.75565258250209677 0 0.18269480424590959 0.75905448272264375 0 0.15332765547575641 0.71200081858233666 0 0.19068556247388771 0.71028988922845504 0 0.18269480424590959 0.75905448272264375 0 0.19068556247388771 0.71028988922845504 0 0.2248999640082178 0.72584299459689172 0 0.18269480424590959 0.75905448272264375 0 0.19068556247388771 0.71028988922845504 0 0.2248999640082178 0.72584299459689172 0 0.2236846579037573 0.67380363126050236 0 0.2248999640082178 0.72584299459689172 0 0.2236846579037573 0.67380363126050236 0 0.26439878998046262 0.7048065392091396 0 0.2248999640082178 0.72584299459689172 0 0.22556077506376701 0.77837424984191617 0 0.25676291524611189 0.7436741304886243 0 0.2248999640082178 0.72584299459689172 0 0.25676291524611189 0.7436741304886243 0 0.26439878998046262 0.7048065392091396 0 0.16500388252850301 0.66612077714085194 0 0.2236846579037573 0.67380363126050236 0 0.19914261668318661 0.62286739485272158 0 0.16500388252850301 0.66612077714085194 0 0.19068556247388771 0.71028988922845504 0 0.2236846579037573 0.67380363126050236 0 0.2236846579037573 0.67380363126050236 0 0.2459498854893499 0.63248470766216769 0 0.19914261668318661 0.62286739485272158 0 0.2236846579037573 0.67380363126050236 0 0.2459498854893499 0.63248470766216769 0 0.27820712747429932 0.65530134213254643 0 0.2459498854893499 0.63248470766216769 0 0.19914261668318661 0.62286739485272158 0 0.22549374774072969 0.58452645269293457 0 0.2459498854893499 0.63248470766216769 0 0.22549374774072969 0.58452645269293457 0 0.26573297623774761 0.59828298563722948 0 0.19914261668318661 0.62286739485272158 0 0.22549374774072969 0.58452645269293457 0 0.18381867841758909 0.57774125163628387 0 0.22549374774072969 0.58452645269293457 0 0.20050006573841939 0.53248514016039872 0 0.18381867841758909 0.57774125163628387 0 0.22549374774072969 0.58452645269293457 0 0.25115337790845271 0.54719303014923271 0 0.26573297623774761 0.59828298563722948 0 0.22549374774072969 0.58452645269293457 0 0.20050006573841939 0.53248514016039872 0 0.25115337790845271 0.54719303014923271 0 0.23975172658309729 0.49475499200540818 0 0.20050006573841939 0.53248514016039872 0 0.25115337790845271 0.54719303014923271 0 0.19604738184454831 0.47787523520405789 0 0.20050006573841939 0.53248514016039872 0 0.16618607197337229 0.50652878253548905 0 0.23975172658309729 0.49475499200540818 0 0.19604738184454831 0.47787523520405789 0 0.20050006573841939 0.53248514016039872 0 0.20050006573841939 0.53248514016039872 0 0.14934928745814749 0.55042914607228977 0 0.18381867841758909 0.57774125163628387 0 0.20050006573841939 0.53248514016039872 0 0.16618607197337229 0.50652878253548905 0 0.14934928745814749 0.55042914607228977 0 0.1216098864341134 0.50637075089503902 0 0.16618607197337229 0.50652878253548905 0 0.14934928745814749 0.55042914607228977 0 0.1216098864341134 0.50637075089503902 0 0.1154888278694548 0.56733818459978413 0 0.14934928745814749 0.55042914607228977 0 0.1154888278694548 0.56733818459978413 0 0.14934928745814749 0.55042914607228977 0 0.15720202157091859 0.60665697304410315 0 0.1024350934457823 0.60772393977513839 0 0.1154888278694548 0.56733818459978413 0 0.15720202157091859 0.60665697304410315 0 0.1024350934457823 0.60772393977513839 0 0.1241190223511371 0.64391885572885044 0 0.15720202157091859 0.60665697304410315 0 0.19914261668318661 0.62286739485272158 0 0.15720202157091859 0.60665697304410315 0 0.18381867841758909 0.57774125163628387 0 0.14934928745814749 0.55042914607228977 0 0.15720202157091859 0.60665697304410315 0 0.18381867841758909 0.57774125163628387 0 0.10000000000041601 1 0 0.10266856499240549 0.95548163909968886 0 0.15000000000062411 1 0 0.10266856499240549 0.95548163909968886 0 0.053064897599294662 0.95186845269532028 0 0.083411279318375747 0.91030024466934134 0 0.10000000000041601 1 0 0.050000000000207989 1 0 0.053064897599294662 0.95186845269532028 0 0.10000000000041601 1 0 0.10266856499240549 0.95548163909968886 0 0.053064897599294662 0.95186845269532028 0 0.050000000000207989 1 0 0.025766224399875661 0.97546711317377799 0 0.053064897599294662 0.95186845269532028 0 0.050000000000207989 1 0 0 1 0 0.025766224399875661 0.97546711317377799 0 0 1 0 0.025766224399875661 0.97546711317377799 0 0 0.94999999999979179 0 0.025766224399875661 0.97546711317377799 0 0 0.94999999999979179 0 0.053064897599294662 0.95186845269532028 0 0 0.94999999999979179 0 0.053064897599294662 0.95186845269532028 0 0.0443105827531413 0.89858748162559932 0 0.053064897599294662 0.95186845269532028 0 0.0443105827531413 0.89858748162559932 0 0.083411279318375747 0.91030024466934134 0 0 0.94999999999979179 0 0 0.89999999999958358 0 0.0443105827531413 0.89858748162559932 0 0 0.89999999999958358 0 0.0443105827531413 0.89858748162559932 0 0 0.84999999999965292 0 0.0443105827531413 0.89858748162559932 0 0.083411279318375747 0.91030024466934134 0 0.065374659239661639 0.8551091961254178 0 0.083411279318375747 0.91030024466934134 0 0.10562472963403439 0.87143394428979881 0 0.065374659239661639 0.8551091961254178 0 0.10266856499240549 0.95548163909968886 0 0.083411279318375747 0.91030024466934134 0 0.1241151115713819 0.9045666525468371 0 0.10266856499240549 0.95548163909968886 0 0.1241151115713819 0.9045666525468371 0 0.14617343800780541 0.93808063414349496 0 0.1241151115713819 0.9045666525468371 0 0.10562472963403439 0.87143394428979881 0 0.14474682429600511 0.85524784522713515 0 0.083411279318375747 0.91030024466934134 0 0.1241151115713819 0.9045666525468371 0 0.10562472963403439 0.87143394428979881 0 0.10562472963403439 0.87143394428979881 0 0.1074251789111534 0.83564394292147814 0 0.14474682429600511 0.85524784522713515 0 0.1074251789111534 0.83564394292147814 0 0.065374659239661639 0.8551091961254178 0 0.083105206071452636 0.79992298667296435 0 0.10562472963403439 0.87143394428979881 0 0.1074251789111534 0.83564394292147814 0 0.065374659239661639 0.8551091961254178 0 0.065374659239661639 0.8551091961254178 0 0 0.84999999999965292 0 0.038512288486097702 0.8155852717111195 0 0.0443105827531413 0.89858748162559932 0 0.065374659239661639 0.8551091961254178 0 0 0.84999999999965292 0 0 0.84999999999965292 0 0.038512288486097702 0.8155852717111195 0 0 0.79999999999999982 0 0.065374659239661639 0.8551091961254178 0 0.038512288486097702 0.8155852717111195 0 0.083105206071452636 0.79992298667296435 0 0.038512288486097702 0.8155852717111195 0 0.04408157711937423 0.7728941757575627 0 0.083105206071452636 0.79992298667296435 0 0.038512288486097702 0.8155852717111195 0 0 0.79999999999999982 0 0.04408157711937423 0.7728941757575627 0 0 0.79999999999999982 0 0 0.75000000000034661 0 0.04408157711937423 0.7728941757575627 0 0.049706944316475897 0.72477277076253799 0 0.04408157711937423 0.7728941757575627 0 0.090953281884486245 0.7564451946902494 0 0.04408157711937423 0.7728941757575627 0 0.090953281884486245 0.7564451946902494 0 0.083105206071452636 0.79992298667296435 0 0.1074251789111534 0.83564394292147814 0 0.083105206071452636 0.79992298667296435 0 0.1382744753146134 0.79650574229207483 0 0.090953281884486245 0.7564451946902494 0 0.083105206071452636 0.79992298667296435 0 0.1382744753146134 0.79650574229207483 0 0.090953281884486245 0.7564451946902494 0 0.14335651144331049 0.75565258250209677 0 0.1382744753146134 0.79650574229207483 0 0.14335651144331049 0.75565258250209677 0 0.1382744753146134 0.79650574229207483 0 0.18269480424590959 0.75905448272264375 0 0.1382744753146134 0.79650574229207483 0 0.18269480424590959 0.75905448272264375 0 0.17777405986036951 0.81832336108265358 0 0.2248999640082178 0.72584299459689172 0 0.18269480424590959 0.75905448272264375 0 0.22556077506376701 0.77837424984191617 0 0.22556077506376701 0.77837424984191617 0 0.21858834311891909 0.81980263716112767 0 0.26104540868854792 0.81401944968719064 0 0.22556077506376701 0.77837424984191617 0 0.21858834311891909 0.81980263716112767 0 0.17777405986036951 0.81832336108265358 0 0.18269480424590959 0.75905448272264375 0 0.22556077506376701 0.77837424984191617 0 0.17777405986036951 0.81832336108265358 0 0.21858834311891909 0.81980263716112767 0 0.19741632902693801 0.86755867406447229 0 0.17777405986036951 0.81832336108265358 0 0.21858834311891909 0.81980263716112767 0 0.2401283238295133 0.85648409884788523 0 0.26104540868854792 0.81401944968719064 0 0.21858834311891909 0.81980263716112767 0 0.2401283238295133 0.85648409884788523 0 0.19741632902693801 0.86755867406447229 0 0.19741632902693801 0.86755867406447229 0 0.17777405986036951 0.81832336108265358 0 0.14474682429600511 0.85524784522713515 0 0.19741632902693801 0.86755867406447229 0 0.14474682429600511 0.85524784522713515 0 0.16206583317966519 0.89685560785156404 0 0.1382744753146134 0.79650574229207483 0 0.17777405986036951 0.81832336108265358 0 0.14474682429600511 0.85524784522713515 0 0.1074251789111534 0.83564394292147814 0 0.1382744753146134 0.79650574229207483 0 0.14474682429600511 0.85524784522713515 0 0.1241151115713819 0.9045666525468371 0 0.14474682429600511 0.85524784522713515 0 0.16206583317966519 0.89685560785156404 0 0.1241151115713819 0.9045666525468371 0 0.16206583317966519 0.89685560785156404 0 0.14617343800780541 0.93808063414349496 0 0.16206583317966519 0.89685560785156404 0 0.19901705110390991 0.9175543425573498 0 0.14617343800780541 0.93808063414349496 0 0.19741632902693801 0.86755867406447229 0 0.16206583317966519 0.89685560785156404 0 0.19901705110390991 0.9175543425573498 0 0.19741632902693801 0.86755867406447229 0 0.24536017905392571 0.90704567837671446 0 0.19901705110390991 0.9175543425573498 0 0.2401283238295133 0.85648409884788523 0 0.19741632902693801 0.86755867406447229 0 0.24536017905392571 0.90704567837671446 0 0.24536017905392571 0.90704567837671446 0 0.19901705110390991 0.9175543425573498 0 0.22850979588452081 0.95594428570238643 0 0.19901705110390991 0.9175543425573498 0 0.22850979588452081 0.95594428570238643 0 0.18474005699953849 0.96231585248064622 0 0.24536017905392571 0.90704567837671446 0 0.22850979588452081 0.95594428570238643 0 0.27609987656793722 0.94991445621608572 0 0.22850979588452081 0.95594428570238643 0 0.20000000000083221 1 0 0.25000000000104028 1 0 0.22850979588452081 0.95594428570238643 0 0.20000000000083221 1 0 0.18474005699953849 0.96231585248064622 0 0.20000000000083221 1 0 0.18474005699953849 0.96231585248064622 0 0.15000000000062411 1 0 0.19901705110390991 0.9175543425573498 0 0.18474005699953849 0.96231585248064622 0 0.14617343800780541 0.93808063414349496 0 0.18474005699953849 0.96231585248064622 0 0.14617343800780541 0.93808063414349496 0 0.15000000000062411 1 0 0.10266856499240549 0.95548163909968886 0 0.14617343800780541 0.93808063414349496 0 0.15000000000062411 1 0 0.35000000000145642 1 0 0.36184234618600131 0.96443954459096326 0 0.32544832635163229 0.95485394099568932 0 0.35000000000145642 1 0 0.36184234618600131 0.96443954459096326 0 0.40000000000166441 1 0 0.36184234618600131 0.96443954459096326 0 0.32544832635163229 0.95485394099568932 0 0.35752321586431363 0.9185439911803448 0 0.36184234618600131 0.96443954459096326 0 0.35752321586431363 0.9185439911803448 0 0.39641108128798319 0.94356127926187128 0 0.35000000000145642 1 0 0.32544832635163229 0.95485394099568932 0 0.30000000000124832 1 0 0.30000000000124832 1 0 0.25000000000104028 1 0 0.27609987656793722 0.94991445621608572 0 0.22850979588452081 0.95594428570238643 0 0.25000000000104028 1 0 0.27609987656793722 0.94991445621608572 0 0.32544832635163229 0.95485394099568932 0 0.30000000000124832 1 0 0.27609987656793722 0.94991445621608572 0 0.32544832635163229 0.95485394099568932 0 0.27609987656793722 0.94991445621608572 0 0.30864387279288652 0.89906554525974958 0 0.24536017905392571 0.90704567837671446 0 0.27270076654418179 0.87751467830216623 0 0.30864387279288652 0.89906554525974958 0 0.24536017905392571 0.90704567837671446 0 0.27609987656793722 0.94991445621608572 0 0.30864387279288652 0.89906554525974958 0 0.2401283238295133 0.85648409884788523 0 0.24536017905392571 0.90704567837671446 0 0.27270076654418179 0.87751467830216623 0 0.30864387279288652 0.89906554525974958 0 0.35752321586431363 0.9185439911803448 0 0.35864759629805099 0.87963482415279515 0 0.32544832635163229 0.95485394099568932 0 0.30864387279288652 0.89906554525974958 0 0.35752321586431363 0.9185439911803448 0 0.35752321586431363 0.9185439911803448 0 0.35864759629805099 0.87963482415279515 0 0.39767323751400468 0.89584229130535065 0 0.35864759629805099 0.87963482415279515 0 0.33403534827021109 0.84402799729020661 0 0.39536230704883951 0.84069429572832477 0 0.33403534827021109 0.84402799729020661 0 0.35642984951668422 0.80994399665655703 0 0.39536230704883951 0.84069429572832477 0 0.33403534827021109 0.84402799729020661 0 0.30857225866488791 0.81101973481716805 0 0.35642984951668422 0.80994399665655703 0 0.30864387279288652 0.89906554525974958 0 0.35864759629805099 0.87963482415279515 0 0.33403534827021109 0.84402799729020661 0 0.30864387279288652 0.89906554525974958 0 0.33403534827021109 0.84402799729020661 0 0.29209212897034281 0.84715728365233667 0 0.27270076654418179 0.87751467830216623 0 0.30864387279288652 0.89906554525974958 0 0.29209212897034281 0.84715728365233667 0 0.2401283238295133 0.85648409884788523 0 0.27270076654418179 0.87751467830216623 0 0.29209212897034281 0.84715728365233667 0 0.2401283238295133 0.85648409884788523 0 0.29209212897034281 0.84715728365233667 0 0.26104540868854792 0.81401944968719064 0 0.29209212897034281 0.84715728365233667 0 0.26104540868854792 0.81401944968719064 0 0.30857225866488791 0.81101973481716805 0 0.33403534827021109 0.84402799729020661 0 0.29209212897034281 0.84715728365233667 0 0.30857225866488791 0.81101973481716805 0 0.26104540868854792 0.81401944968719064 0 0.30857225866488791 0.81101973481716805 0 0.2792923945214143 0.77665808831789485 0 0.30857225866488791 0.81101973481716805 0 0.2792923945214143 0.77665808831789485 0 0.33123028043633618 0.77629643437932982 0 0.22556077506376701 0.77837424984191617 0 0.26104540868854792 0.81401944968719064 0 0.2792923945214143 0.77665808831789485 0 0.2792923945214143 0.77665808831789485 0 0.25676291524611189 0.7436741304886243 0 0.29904318922293632 0.74132814928635593 0 0.22556077506376701 0.77837424984191617 0 0.2792923945214143 0.77665808831789485 0 0.25676291524611189 0.7436741304886243 0 0.2792923945214143 0.77665808831789485 0 0.33123028043633618 0.77629643437932982 0 0.29904318922293632 0.74132814928635593 0 0.33123028043633618 0.77629643437932982 0 0.29904318922293632 0.74132814928635593 0 0.35415581127540569 0.73730480045900215 0 0.30857225866488791 0.81101973481716805 0 0.33123028043633618 0.77629643437932982 0 0.35642984951668422 0.80994399665655703 0 0.33123028043633618 0.77629643437932982 0 0.35642984951668422 0.80994399665655703 0 0.38586766253264881 0.78219501014812498 0 0.33123028043633618 0.77629643437932982 0 0.38586766253264881 0.78219501014812498 0 0.35415581127540569 0.73730480045900215 0 0.38586766253264881 0.78219501014812498 0 0.42676259796334498 0.76772545931379299 0 0.40326160981139969 0.73346192995102844 0 0.38586766253264881 0.78219501014812498 0 0.35415581127540569 0.73730480045900215 0 0.40326160981139969 0.73346192995102844 0 0.38586766253264881 0.78219501014812498 0 0.42609163930740518 0.80361684430568059 0 0.39536230704883951 0.84069429572832477 0 0.35642984951668422 0.80994399665655703 0 0.38586766253264881 0.78219501014812498 0 0.39536230704883951 0.84069429572832477 0 0.38586766253264881 0.78219501014812498 0 0.42609163930740518 0.80361684430568059 0 0.42676259796334498 0.76772545931379299 0 0.42676259796334498 0.76772545931379299 0 0.4656888918609538 0.78493261229743638 0 0.45582236402875981 0.73896743678908217 0 0.4656888918609538 0.78493261229743638 0 0.45582236402875981 0.73896743678908217 0 0.50945740445113552 0.75476055527778108 0 0.4656888918609538 0.78493261229743638 0 0.50731287292894423 0.78963574450233831 0 0.50945740445113552 0.75476055527778108 0 0.4656888918609538 0.78493261229743638 0 0.50627822638148745 0.8263979829520941 0 0.50731287292894423 0.78963574450233831 0 0.42609163930740518 0.80361684430568059 0 0.4656888918609538 0.78493261229743638 0 0.45677673713123867 0.84253684404072415 0 0.42609163930740518 0.80361684430568059 0 0.42676259796334498 0.76772545931379299 0 0.4656888918609538 0.78493261229743638 0 0.4656888918609538 0.78493261229743638 0 0.45677673713123867 0.84253684404072415 0 0.50627822638148745 0.8263979829520941 0 0.45677673713123867 0.84253684404072415 0 0.50202631463681879 0.87892870825713787 0 0.50627822638148745 0.8263979829520941 0 0.45677673713123867 0.84253684404072415 0 0.44003836461056539 0.88093474584252718 0 0.50202631463681879 0.87892870825713787 0 0.45677673713123867 0.84253684404072415 0 0.39536230704883951 0.84069429572832477 0 0.44003836461056539 0.88093474584252718 0 0.39536230704883951 0.84069429572832477 0 0.39767323751400468 0.89584229130535065 0 0.44003836461056539 0.88093474584252718 0 0.42609163930740518 0.80361684430568059 0 0.45677673713123867 0.84253684404072415 0 0.39536230704883951 0.84069429572832477 0 0.35864759629805099 0.87963482415279515 0 0.39536230704883951 0.84069429572832477 0 0.39767323751400468 0.89584229130535065 0 0.35752321586431363 0.9185439911803448 0 0.39767323751400468 0.89584229130535065 0 0.39641108128798319 0.94356127926187128 0 0.39767323751400468 0.89584229130535065 0 0.4367309254023824 0.92065556789053882 0 0.39641108128798319 0.94356127926187128 0 0.39767323751400468 0.89584229130535065 0 0.4367309254023824 0.92065556789053882 0 0.44003836461056539 0.88093474584252718 0 0.4367309254023824 0.92065556789053882 0 0.44003836461056539 0.88093474584252718 0 0.47401147028110507 0.91529957330468115 0 0.44003836461056539 0.88093474584252718 0 0.47401147028110507 0.91529957330468115 0 0.50202631463681879 0.87892870825713787 0 0.47401147028110507 0.91529957330468115 0 0.47135117303824892 0.95556877749289892 0 0.52122150208832174 0.94089974453840242 0 0.47401147028110507 0.91529957330468115 0 0.52122150208832174 0.94089974453840242 0 0.50202631463681879 0.87892870825713787 0 0.4367309254023824 0.92065556789053882 0 0.47401147028110507 0.91529957330468115 0 0.47135117303824892 0.95556877749289892 0 0.4367309254023824 0.92065556789053882 0 0.47135117303824892 0.95556877749289892 0 0.4308986359464303 0.96395712492906194 0 0.47135117303824892 0.95556877749289892 0 0.50000000000205869 1 0 0.52122150208832174 0.94089974453840242 0 0.47135117303824892 0.95556877749289892 0 0.45000000000187229 1 0 0.50000000000205869 1 0 0.47135117303824892 0.95556877749289892 0 0.45000000000187229 1 0 0.4308986359464303 0.96395712492906194 0 0.45000000000187229 1 0 0.4308986359464303 0.96395712492906194 0 0.40000000000166441 1 0 0.4308986359464303 0.96395712492906194 0 0.39641108128798319 0.94356127926187128 0 0.40000000000166441 1 0 0.4367309254023824 0.92065556789053882 0 0.4308986359464303 0.96395712492906194 0 0.39641108128798319 0.94356127926187128 0 0.36184234618600131 0.96443954459096326 0 0.39641108128798319 0.94356127926187128 0 0.40000000000166441 1 0 0.33122374654748771 0.57588941099433744 0 0.31502927232353312 0.6134992213375432 0 0.35765792684946668 0.6000687869219653 0 0.31502927232353312 0.6134992213375432 0 0.35765792684946668 0.6000687869219653 0 0.35864735590330371 0.63903383440414463 0 0.35765792684946668 0.6000687869219653 0 0.35864735590330371 0.63903383440414463 0 0.39743091024207589 0.6239520004230239 0 0.33122374654748771 0.57588941099433744 0 0.35765792684946668 0.6000687869219653 0 0.37272913873093971 0.56192925302619479 0 0.37272913873093971 0.56192925302619479 0 0.33190227185843768 0.52715113583864037 0 0.38244435121258652 0.51653317813019495 0 0.33122374654748771 0.57588941099433744 0 0.37272913873093971 0.56192925302619479 0 0.33190227185843768 0.52715113583864037 0 0.35024835142131061 0.48654922671676981 0 0.33190227185843768 0.52715113583864037 0 0.38244435121258652 0.51653317813019495 0 0.33122374654748771 0.57588941099433744 0 0.33190227185843768 0.52715113583864037 0 0.29110487519241501 0.56588143995431495 0 0.33190227185843768 0.52715113583864037 0 0.28307294598219601 0.50789252727458634 0 0.29110487519241501 0.56588143995431495 0 0.31068898841644388 0.47541502461811092 0 0.33190227185843768 0.52715113583864037 0 0.28307294598219601 0.50789252727458634 0 0.23975172658309729 0.49475499200540818 0 0.28307294598219601 0.50789252727458634 0 0.25115337790845271 0.54719303014923271 0 0.28307294598219601 0.50789252727458634 0 0.25115337790845271 0.54719303014923271 0 0.29110487519241501 0.56588143995431495 0 0.25115337790845271 0.54719303014923271 0 0.29110487519241501 0.56588143995431495 0 0.26573297623774761 0.59828298563722948 0 0.33122374654748771 0.57588941099433744 0 0.31502927232353312 0.6134992213375432 0 0.29110487519241501 0.56588143995431495 0 0.31502927232353312 0.6134992213375432 0 0.29110487519241501 0.56588143995431495 0 0.26573297623774761 0.59828298563722948 0 0.31502927232353312 0.6134992213375432 0 0.26573297623774761 0.59828298563722948 0 0.27820712747429932 0.65530134213254643 0 0.2459498854893499 0.63248470766216769 0 0.26573297623774761 0.59828298563722948 0 0.27820712747429932 0.65530134213254643 0 0.2236846579037573 0.67380363126050236 0 0.27820712747429932 0.65530134213254643 0 0.26439878998046262 0.7048065392091396 0 0.27820712747429932 0.65530134213254643 0 0.31378396441836959 0.70157213313026345 0 0.32263089806001177 0.66003674931826484 0 0.27820712747429932 0.65530134213254643 0 0.26439878998046262 0.7048065392091396 0 0.31378396441836959 0.70157213313026345 0 0.31502927232353312 0.6134992213375432 0 0.27820712747429932 0.65530134213254643 0 0.32263089806001177 0.66003674931826484 0 0.25676291524611189 0.7436741304886243 0 0.26439878998046262 0.7048065392091396 0 0.29904318922293632 0.74132814928635593 0 0.26439878998046262 0.7048065392091396 0 0.29904318922293632 0.74132814928635593 0 0.31378396441836959 0.70157213313026345 0 0.29904318922293632 0.74132814928635593 0 0.31378396441836959 0.70157213313026345 0 0.35415581127540569 0.73730480045900215 0 0.31378396441836959 0.70157213313026345 0 0.36622285152418499 0.69092437780804039 0 0.35415581127540569 0.73730480045900215 0 0.36622285152418499 0.69092437780804039 0 0.35415581127540569 0.73730480045900215 0 0.40326160981139969 0.73346192995102844 0 0.31502927232353312 0.6134992213375432 0 0.32263089806001177 0.66003674931826484 0 0.35864735590330371 0.63903383440414463 0 0.31378396441836959 0.70157213313026345 0 0.36622285152418499 0.69092437780804039 0 0.32263089806001177 0.66003674931826484 0 0.36622285152418499 0.69092437780804039 0 0.32263089806001177 0.66003674931826484 0 0.35864735590330371 0.63903383440414463 0 0.36622285152418499 0.69092437780804039 0 0.35864735590330371 0.63903383440414463 0 0.3977710372045391 0.65868194622830212 0 0.35864735590330371 0.63903383440414463 0 0.3977710372045391 0.65868194622830212 0 0.39743091024207589 0.6239520004230239 0 0.36622285152418499 0.69092437780804039 0 0.3977710372045391 0.65868194622830212 0 0.43323420005758778 0.6913544522562407 0 0.3977710372045391 0.65868194622830212 0 0.43323420005758778 0.6913544522562407 0 0.43846182030517877 0.64845797726506715 0 0.43846182030517877 0.64845797726506715 0 0.43545892161006339 0.61093128915313821 0 0.39743091024207589 0.6239520004230239 0 0.3977710372045391 0.65868194622830212 0 0.43846182030517877 0.64845797726506715 0 0.39743091024207589 0.6239520004230239 0 0.36622285152418499 0.69092437780804039 0 0.40326160981139969 0.73346192995102844 0 0.43323420005758778 0.6913544522562407 0 0.40326160981139969 0.73346192995102844 0 0.43323420005758778 0.6913544522562407 0 0.45582236402875981 0.73896743678908217 0 0.42676259796334498 0.76772545931379299 0 0.40326160981139969 0.73346192995102844 0 0.45582236402875981 0.73896743678908217 0 0.43323420005758778 0.6913544522562407 0 0.45582236402875981 0.73896743678908217 0 0.5 0.69999999999999996 0 0.45582236402875981 0.73896743678908217 0 0.5 0.69999999999999996 0 0.50945740445113552 0.75476055527778108 0 0.43323420005758778 0.6913544522562407 0 0.47913475093885149 0.66010775372412711 0 0.5 0.69999999999999996 0 0.43846182030517877 0.64845797726506715 0 0.47913475093885149 0.66010775372412711 0 0.47095389620662098 0.61892551373708504 0 0.43846182030517877 0.64845797726506715 0 0.47095389620662098 0.61892551373708504 0 0.43545892161006339 0.61093128915313821 0 0.43323420005758778 0.6913544522562407 0 0.43846182030517877 0.64845797726506715 0 0.47913475093885149 0.66010775372412711 0 0.47913475093885149 0.66010775372412711 0 0.47095389620662098 0.61892551373708504 0 0.50715858906372158 0.63295939104129484 0 0.47095389620662098 0.61892551373708504 0 0.5166924242153631 0.59825134841919447 0 0.50715858906372158 0.63295939104129484 0 0.47095389620662098 0.61892551373708504 0 0.46666084890304671 0.57634471035397938 0 0.5166924242153631 0.59825134841919447 0 0.47095389620662098 0.61892551373708504 0 0.46666084890304671 0.57634471035397938 0 0.43545892161006339 0.61093128915313821 0 0.43545892161006339 0.61093128915313821 0 0.4089290844030305 0.58728915500154233 0 0.39743091024207589 0.6239520004230239 0 0.46666084890304671 0.57634471035397938 0 0.43545892161006339 0.61093128915313821 0 0.4089290844030305 0.58728915500154233 0 0.46666084890304671 0.57634471035397938 0 0.4089290844030305 0.58728915500154233 0 0.42644501560315817 0.54603747078095544 0 0.37272913873093971 0.56192925302619479 0 0.4089290844030305 0.58728915500154233 0 0.42644501560315817 0.54603747078095544 0 0.35765792684946668 0.6000687869219653 0 0.37272913873093971 0.56192925302619479 0 0.4089290844030305 0.58728915500154233 0 0.35765792684946668 0.6000687869219653 0 0.4089290844030305 0.58728915500154233 0 0.39743091024207589 0.6239520004230239 0 0.37272913873093971 0.56192925302619479 0 0.38244435121258652 0.51653317813019495 0 0.42644501560315817 0.54603747078095544 0 0.43507373378304309 0.49699695397193322 0 0.38244435121258652 0.51653317813019495 0 0.42644501560315817 0.54603747078095544 0 0.46666084890304671 0.57634471035397938 0 0.47793794143994173 0.52940715638744962 0 0.53245488764484505 0.55078124999999989 0 0.43507373378304309 0.49699695397193322 0 0.49102375406324739 0.49123754822244059 0 0.47793794143994173 0.52940715638744962 0 0.43507373378304309 0.49699695397193322 0 0.42644501560315817 0.54603747078095544 0 0.47793794143994173 0.52940715638744962 0 0.46666084890304671 0.57634471035397938 0 0.42644501560315817 0.54603747078095544 0 0.47793794143994173 0.52940715638744962 0 0.49102375406324739 0.49123754822244059 0 0.47793794143994173 0.52940715638744962 0 0.53330375813596242 0.50827942741749099 0 0.47793794143994173 0.52940715638744962 0 0.53245488764484505 0.55078124999999989 0 0.53330375813596242 0.50827942741749099 0 0.53245488764484505 0.55078124999999989 0 0.53330375813596242 0.50827942741749099 0 0.57435499076887508 0.54267261987897775 0 0.53245488764484505 0.55078124999999989 0 0.57435499076887508 0.54267261987897775 0 0.57412547362576272 0.58273804879550706 0 0.53330375813596242 0.50827942741749099 0 0.57611405284611883 0.50165903596042916 0 0.57435499076887508 0.54267261987897775 0 0.57611405284611883 0.50165903596042916 0 0.57435499076887508 0.54267261987897775 0 0.62042975506801734 0.54295974692364424 0 0.57435499076887508 0.54267261987897775 0 0.62042975506801734 0.54295974692364424 0 0.57412547362576272 0.58273804879550706 0 0.57611405284611883 0.50165903596042916 0 0.62042975506801734 0.54295974692364424 0 0.61547661924074692 0.48539576058873962 0 0.5991018319127801 0.62925360607495295 0 0.6405463747586706 0.63290524857395714 0 0.63065402604362242 0.59661356661633302 0 0.57412547362576272 0.58273804879550706 0 0.5991018319127801 0.62925360607495295 0 0.63065402604362242 0.59661356661633302 0 0.62042975506801734 0.54295974692364424 0 0.57412547362576272 0.58273804879550706 0 0.63065402604362242 0.59661356661633302 0 0.57412547362576272 0.58273804879550706 0 0.5498280205245758 0.6290146943450976 0 0.5991018319127801 0.62925360607495295 0 0.46666084890304671 0.57634471035397938 0 0.53245488764484505 0.55078124999999989 0 0.5166924242153631 0.59825134841919447 0 0.57412547362576272 0.58273804879550706 0 0.5166924242153631 0.59825134841919447 0 0.5498280205245758 0.6290146943450976 0 0.53245488764484505 0.55078124999999989 0 0.57412547362576272 0.58273804879550706 0 0.5166924242153631 0.59825134841919447 0 0.5166924242153631 0.59825134841919447 0 0.50715858906372158 0.63295939104129484 0 0.5498280205245758 0.6290146943450976 0 0.47913475093885149 0.66010775372412711 0 0.50715858906372158 0.63295939104129484 0 0.52584555706968406 0.66664215091846768 0 0.50715858906372158 0.63295939104129484 0 0.52584555706968406 0.66664215091846768 0 0.5498280205245758 0.6290146943450976 0 0.47913475093885149 0.66010775372412711 0 0.52584555706968406 0.66664215091846768 0 0.5 0.69999999999999996 0 0.52584555706968406 0.66664215091846768 0 0.54999999999999993 0.69999999999999996 0 0.57484956128872922 0.66573805030881994 0 0.52584555706968406 0.66664215091846768 0 0.5498280205245758 0.6290146943450976 0 0.57484956128872922 0.66573805030881994 0 0.5 0.69999999999999996 0 0.55363780716230748 0.74348740161571747 0 0.50945740445113552 0.75476055527778108 0 0.52584555706968406 0.66664215091846768 0 0.5 0.69999999999999996 0 0.54999999999999993 0.69999999999999996 0 0.5 0.69999999999999996 0 0.54999999999999993 0.69999999999999996 0 0.5 0.69999999999999996 0 0.54999999999999993 0.69999999999999996 0 0.55363780716230748 0.74348740161571747 0 0.55363780716230748 0.74348740161571747 0 0.59999999999999976 0.69999999999999996 0 0.59636844454254345 0.75937156204589151 0 0.54999999999999993 0.69999999999999996 0 0.59999999999999976 0.69999999999999996 0 0.54999999999999993 0.69999999999999996 0 0.59999999999999976 0.69999999999999996 0 0.57484956128872922 0.66573805030881994 0 0.54999999999999993 0.69999999999999996 0 0.55363780716230748 0.74348740161571747 0 0.59999999999999976 0.69999999999999996 0 0.59999999999999976 0.69999999999999996 0 0.6499999999999998 0.69999999999999996 0 0.59999999999999976 0.69999999999999996 0 0.62460753523532009 0.66851202781000296 0 0.6499999999999998 0.69999999999999996 0 0.59999999999999976 0.69999999999999996 0 0.63221990677827677 0.73442891067859706 0 0.59636844454254345 0.75937156204589151 0 0.5498280205245758 0.6290146943450976 0 0.57484956128872922 0.66573805030881994 0 0.5991018319127801 0.62925360607495295 0 0.59999999999999976 0.69999999999999996 0 0.57484956128872922 0.66573805030881994 0 0.62460753523532009 0.66851202781000296 0 0.57484956128872922 0.66573805030881994 0 0.62460753523532009 0.66851202781000296 0 0.5991018319127801 0.62925360607495295 0 0.62460753523532009 0.66851202781000296 0 0.5991018319127801 0.62925360607495295 0 0.6405463747586706 0.63290524857395714 0 0.62460753523532009 0.66851202781000296 0 0.6405463747586706 0.63290524857395714 0 0.675261390228442 0.65996937624687813 0 0.62460753523532009 0.66851202781000296 0 0.675261390228442 0.65996937624687813 0 0.6499999999999998 0.69999999999999996 0 0.675261390228442 0.65996937624687813 0 0.6499999999999998 0.69999999999999996 0 0.69999999999999984 0.69999999999999996 0 0.6405463747586706 0.63290524857395714 0 0.675261390228442 0.65996937624687813 0 0.67529834988829951 0.61613270668143583 0 0.63221990677827677 0.73442891067859706 0 0.66427993341343905 0.73232764502436276 0 0.64753070846764316 0.77332939069435502 0 0.63221990677827677 0.73442891067859706 0 0.6499999999999998 0.69999999999999996 0 0.66427993341343905 0.73232764502436276 0 0.59999999999999976 0.69999999999999996 0 0.63221990677827677 0.73442891067859706 0 0.6499999999999998 0.69999999999999996 0 0.6499999999999998 0.69999999999999996 0 0.69999999999999984 0.69999999999999996 0 0.6499999999999998 0.69999999999999996 0 0.66427993341343905 0.73232764502436276 0 0.69999999999999984 0.69999999999999996 0 0.66427993341343905 0.73232764502436276 0 0.69999999999999984 0.69999999999999996 0 0.6916490518212759 0.75387992374886192 0 0.69999999999999984 0.69999999999999996 0 0.72501250972655151 0.74067302935308721 0 0.6916490518212759 0.75387992374886192 0 0.69999999999999984 0.69999999999999996 0 0.74999999999999989 0.69999999999999996 0 0.72501250972655151 0.74067302935308721 0 0.69999999999999984 0.69999999999999996 0 0.74999999999999989 0.69999999999999996 0 0.72500000000000064 0.67022701834392062 0 0.69999999999999984 0.69999999999999996 0 0.74999999999999989 0.69999999999999996 0 0.74999999999999989 0.69999999999999996 0 0.72501250972655151 0.74067302935308721 0 0.75841349681148107 0.75422312624214749 0 0.675261390228442 0.65996937624687813 0 0.71406021706547751 0.63292083137662503 0 0.72500000000000064 0.67022701834392062 0 0.675261390228442 0.65996937624687813 0 0.71406021706547751 0.63292083137662503 0 0.67529834988829951 0.61613270668143583 0 0.675261390228442 0.65996937624687813 0 0.69999999999999984 0.69999999999999996 0 0.72500000000000064 0.67022701834392062 0 0.71406021706547751 0.63292083137662503 0 0.72500000000000064 0.67022701834392062 0 0.74994237037456724 0.62775548192980357 0 0.72500000000000064 0.67022701834392062 0 0.74994237037456724 0.62775548192980357 0 0.7750489929959945 0.66593931409600093 0 0.71406021706547751 0.63292083137662503 0 0.74994237037456724 0.62775548192980357 0 0.71809016091162536 0.58185040402320831 0 0.74994237037456724 0.62775548192980357 0 0.71809016091162536 0.58185040402320831 0 0.77293540622714185 0.59448302402785813 0 0.71406021706547751 0.63292083137662503 0 0.71809016091162536 0.58185040402320831 0 0.67529834988829951 0.61613270668143583 0 0.71809016091162536 0.58185040402320831 0 0.67569444444444449 0.53500863336860327 0 0.67323294229744413 0.57556450033612505 0 0.71809016091162536 0.58185040402320831 0 0.67529834988829951 0.61613270668143583 0 0.67323294229744413 0.57556450033612505 0 0.71809016091162536 0.58185040402320831 0 0.7152569930854884 0.5237994455134295 0 0.77151014687832564 0.54436834383023036 0 0.7152569930854884 0.5237994455134295 0 0.77151014687832564 0.54436834383023036 0 0.73947346780852752 0.49062440112282169 0 0.7152569930854884 0.5237994455134295 0 0.67569444444444449 0.53500863336860327 0 0.69385896817107129 0.48377516041410151 0 0.71809016091162536 0.58185040402320831 0 0.7152569930854884 0.5237994455134295 0 0.67569444444444449 0.53500863336860327 0 0.62042975506801734 0.54295974692364424 0 0.67569444444444449 0.53500863336860327 0 0.67323294229744413 0.57556450033612505 0 0.67569444444444449 0.53500863336860327 0 0.6541250972820879 0.49999999999999989 0 0.69385896817107129 0.48377516041410151 0 0.62042975506801734 0.54295974692364424 0 0.67569444444444449 0.53500863336860327 0 0.6541250972820879 0.49999999999999989 0 0.62042975506801734 0.54295974692364424 0 0.61547661924074692 0.48539576058873962 0 0.6541250972820879 0.49999999999999989 0 0.62042975506801734 0.54295974692364424 0 0.63065402604362242 0.59661356661633302 0 0.67323294229744413 0.57556450033612505 0 0.6405463747586706 0.63290524857395714 0 0.63065402604362242 0.59661356661633302 0 0.67529834988829951 0.61613270668143583 0 0.63065402604362242 0.59661356661633302 0 0.67529834988829951 0.61613270668143583 0 0.67323294229744413 0.57556450033612505 0 0.60000000000138687 1 0 0.62065498684670595 0.95224934003983619 0 0.57382506491224949 0.9629411906298494 0 0.60000000000138687 1 0 0.62065498684670595 0.95224934003983619 0 0.65000000000104008 1 0 0.62065498684670595 0.95224934003983619 0 0.57382506491224949 0.9629411906298494 0 0.57724883562309992 0.92155686857100794 0 0.60000000000138687 1 0 0.57382506491224949 0.9629411906298494 0 0.55000000000173355 1 0 0.55000000000173355 1 0 0.50000000000205869 1 0 0.52122150208832174 0.94089974453840242 0 0.57382506491224949 0.9629411906298494 0 0.52122150208832174 0.94089974453840242 0 0.57724883562309992 0.92155686857100794 0 0.57382506491224949 0.9629411906298494 0 0.55000000000173355 1 0 0.52122150208832174 0.94089974453840242 0 0.52122150208832174 0.94089974453840242 0 0.54783390826260769 0.89287767010860219 0 0.57724883562309992 0.92155686857100794 0 0.52122150208832174 0.94089974453840242 0 0.50202631463681879 0.87892870825713787 0 0.54783390826260769 0.89287767010860219 0 0.54783390826260769 0.89287767010860219 0 0.5832743223239254 0.88483152652961872 0 0.55899371797446828 0.85003102233514438 0 0.54783390826260769 0.89287767010860219 0 0.5832743223239254 0.88483152652961872 0 0.57724883562309992 0.92155686857100794 0 0.5832743223239254 0.88483152652961872 0 0.57724883562309992 0.92155686857100794 0 0.61885627562261258 0.90282959257498208 0 0.62065498684670595 0.95224934003983619 0 0.57724883562309992 0.92155686857100794 0 0.61885627562261258 0.90282959257498208 0 0.5832743223239254 0.88483152652961872 0 0.61885627562261258 0.90282959257498208 0 0.61343887413683884 0.856862479058357 0 0.61343887413683884 0.856862479058357 0 0.60294066490120068 0.80851322453934582 0 0.65005442820240822 0.82644988530054031 0 0.61343887413683884 0.856862479058357 0 0.55899371797446828 0.85003102233514438 0 0.60294066490120068 0.80851322453934582 0 0.55899371797446828 0.85003102233514438 0 0.54782696902220018 0.79245182748204157 0 0.60294066490120068 0.80851322453934582 0 0.5832743223239254 0.88483152652961872 0 0.61343887413683884 0.856862479058357 0 0.55899371797446828 0.85003102233514438 0 0.50202631463681879 0.87892870825713787 0 0.54783390826260769 0.89287767010860219 0 0.55899371797446828 0.85003102233514438 0 0.50202631463681879 0.87892870825713787 0 0.55899371797446828 0.85003102233514438 0 0.50627822638148745 0.8263979829520941 0 0.55899371797446828 0.85003102233514438 0 0.50627822638148745 0.8263979829520941 0 0.54782696902220018 0.79245182748204157 0 0.50627822638148745 0.8263979829520941 0 0.54782696902220018 0.79245182748204157 0 0.50731287292894423 0.78963574450233831 0 0.54782696902220018 0.79245182748204157 0 0.50731287292894423 0.78963574450233831 0 0.50945740445113552 0.75476055527778108 0 0.55363780716230748 0.74348740161571747 0 0.54782696902220018 0.79245182748204157 0 0.50945740445113552 0.75476055527778108 0 0.55363780716230748 0.74348740161571747 0 0.54782696902220018 0.79245182748204157 0 0.59636844454254345 0.75937156204589151 0 0.54782696902220018 0.79245182748204157 0 0.60294066490120068 0.80851322453934582 0 0.59636844454254345 0.75937156204589151 0 0.60294066490120068 0.80851322453934582 0 0.59636844454254345 0.75937156204589151 0 0.64753070846764316 0.77332939069435502 0 0.63221990677827677 0.73442891067859706 0 0.59636844454254345 0.75937156204589151 0 0.64753070846764316 0.77332939069435502 0 0.60294066490120068 0.80851322453934582 0 0.64753070846764316 0.77332939069435502 0 0.65005442820240822 0.82644988530054031 0 0.64753070846764316 0.77332939069435502 0 0.68024162096458085 0.79868546898116533 0 0.65005442820240822 0.82644988530054031 0 0.64753070846764316 0.77332939069435502 0 0.68024162096458085 0.79868546898116533 0 0.6916490518212759 0.75387992374886192 0 0.66427993341343905 0.73232764502436276 0 0.64753070846764316 0.77332939069435502 0 0.6916490518212759 0.75387992374886192 0 0.72501250972655151 0.74067302935308721 0 0.6916490518212759 0.75387992374886192 0 0.72500000000000064 0.7952620967744265 0 0.72501250972655151 0.74067302935308721 0 0.72500000000000064 0.7952620967744265 0 0.75841349681148107 0.75422312624214749 0 0.68024162096458085 0.79868546898116533 0 0.6916490518212759 0.75387992374886192 0 0.72500000000000064 0.7952620967744265 0 0.68024162096458085 0.79868546898116533 0 0.72500000000000064 0.7952620967744265 0 0.68697391633157634 0.84450604838764298 0 0.72500000000000064 0.7952620967744265 0 0.72863726579783861 0.85390518901155588 0 0.68697391633157634 0.84450604838764298 0 0.72500000000000064 0.7952620967744265 0 0.72863726579783861 0.85390518901155588 0 0.76901770135486491 0.84293557325473656 0 0.72863726579783861 0.85390518901155588 0 0.68697391633157634 0.84450604838764298 0 0.7250000000005199 0.89375000000045834 0 0.68697391633157634 0.84450604838764298 0 0.66412543161245952 0.88015090885499059 0 0.7250000000005199 0.89375000000045834 0 0.68697391633157634 0.84450604838764298 0 0.65005442820240822 0.82644988530054031 0 0.66412543161245952 0.88015090885499059 0 0.68024162096458085 0.79868546898116533 0 0.68697391633157634 0.84450604838764298 0 0.65005442820240822 0.82644988530054031 0 0.61343887413683884 0.856862479058357 0 0.65005442820240822 0.82644988530054031 0 0.66412543161245952 0.88015090885499059 0 0.61885627562261258 0.90282959257498208 0 0.61343887413683884 0.856862479058357 0 0.66412543161245952 0.88015090885499059 0 0.61885627562261258 0.90282959257498208 0 0.65507451745379841 0.92229208810758578 0 0.66412543161245952 0.88015090885499059 0 0.62065498684670595 0.95224934003983619 0 0.61885627562261258 0.90282959257498208 0 0.65507451745379841 0.92229208810758578 0 0.65507451745379841 0.92229208810758578 0 0.68987011941058407 0.92105047536677087 0 0.68015064798562208 0.95924320340003011 0 0.65507451745379841 0.92229208810758578 0 0.66412543161245952 0.88015090885499059 0 0.68987011941058407 0.92105047536677087 0 0.66412543161245952 0.88015090885499059 0 0.7250000000005199 0.89375000000045834 0 0.68987011941058407 0.92105047536677087 0 0.72863726579783861 0.85390518901155588 0 0.7250000000005199 0.89375000000045834 0 0.76891166905518427 0.88835469571185499 0 0.7250000000005199 0.89375000000045834 0 0.7250000000005199 0.94981617647078953 0 0.75729602384198635 0.92353652857884294 0 0.7250000000005199 0.89375000000045834 0 0.68987011941058407 0.92105047536677087 0 0.7250000000005199 0.94981617647078953 0 0.68987011941058407 0.92105047536677087 0 0.7250000000005199 0.94981617647078953 0 0.68015064798562208 0.95924320340003011 0 0.7250000000005199 0.94981617647078953 0 0.7000000000006934 1 0 0.75000000000034661 1 0 0.7250000000005199 0.94981617647078953 0 0.75000000000034661 1 0 0.770759834363826 0.95919399014344442 0 0.7250000000005199 0.94981617647078953 0 0.7000000000006934 1 0 0.68015064798562208 0.95924320340003011 0 0.7000000000006934 1 0 0.68015064798562208 0.95924320340003011 0 0.65000000000104008 1 0 0.62065498684670595 0.95224934003983619 0 0.65507451745379841 0.92229208810758578 0 0.68015064798562208 0.95924320340003011 0 0.62065498684670595 0.95224934003983619 0 0.68015064798562208 0.95924320340003011 0 0.65000000000104008 1 0 0.84999999999965292 1 0 0.85170973911348691 0.93569607295217616 0 0.89898474358632463 0.95391965591118966 0 0.84999999999965292 1 0 0.81486180804382891 0.96321394949790495 0 0.85170973911348691 0.93569607295217616 0 0.81486180804382891 0.96321394949790495 0 0.79680861578988083 0.92656778056766709 0 0.85170973911348691 0.93569607295217616 0 0.84999999999965292 1 0 0.81486180804382891 0.96321394949790495 0 0.79999999999999982 1 0 0.81486180804382891 0.96321394949790495 0 0.79999999999999982 1 0 0.770759834363826 0.95919399014344442 0 0.79999999999999982 1 0 0.75000000000034661 1 0 0.770759834363826 0.95919399014344442 0 0.7250000000005199 0.94981617647078953 0 0.770759834363826 0.95919399014344442 0 0.75729602384198635 0.92353652857884294 0 0.81486180804382891 0.96321394949790495 0 0.770759834363826 0.95919399014344442 0 0.79680861578988083 0.92656778056766709 0 0.79680861578988083 0.92656778056766709 0 0.75729602384198635 0.92353652857884294 0 0.76891166905518427 0.88835469571185499 0 0.770759834363826 0.95919399014344442 0 0.79680861578988083 0.92656778056766709 0 0.75729602384198635 0.92353652857884294 0 0.7250000000005199 0.89375000000045834 0 0.75729602384198635 0.92353652857884294 0 0.76891166905518427 0.88835469571185499 0 0.79680861578988083 0.92656778056766709 0 0.76891166905518427 0.88835469571185499 0 0.81159157511211755 0.88795995483179491 0 0.81159157511211755 0.88795995483179491 0 0.85170973911348691 0.93569607295217616 0 0.85600844944837662 0.88483418979512773 0 0.79680861578988083 0.92656778056766709 0 0.81159157511211755 0.88795995483179491 0 0.85170973911348691 0.93569607295217616 0 0.85170973911348691 0.93569607295217616 0 0.85600844944837662 0.88483418979512773 0 0.90416666666660628 0.9041666666666166 0 0.85600844944837662 0.88483418979512773 0 0.82709327591091286 0.84937141670920724 0 0.88088768115933802 0.84674609810493673 0 0.82709327591091286 0.84937141670920724 0 0.84725310900444062 0.80779732082917555 0 0.88088768115933802 0.84674609810493673 0 0.82709327591091286 0.84937141670920724 0 0.80041942726660109 0.81543261647703358 0 0.84725310900444062 0.80779732082917555 0 0.81159157511211755 0.88795995483179491 0 0.85600844944837662 0.88483418979512773 0 0.82709327591091286 0.84937141670920724 0 0.76891166905518427 0.88835469571185499 0 0.81159157511211755 0.88795995483179491 0 0.76901770135486491 0.84293557325473656 0 0.81159157511211755 0.88795995483179491 0 0.82709327591091286 0.84937141670920724 0 0.76901770135486491 0.84293557325473656 0 0.72863726579783861 0.85390518901155588 0 0.76891166905518427 0.88835469571185499 0 0.76901770135486491 0.84293557325473656 0 0.76901770135486491 0.84293557325473656 0 0.80041942726660109 0.81543261647703358 0 0.77094201086366854 0.79647480515688507 0 0.82709327591091286 0.84937141670920724 0 0.76901770135486491 0.84293557325473656 0 0.80041942726660109 0.81543261647703358 0 0.80041942726660109 0.81543261647703358 0 0.77094201086366854 0.79647480515688507 0 0.80185942888539485 0.77452061303608133 0 0.72500000000000064 0.7952620967744265 0 0.77094201086366854 0.79647480515688507 0 0.75841349681148107 0.75422312624214749 0 0.72500000000000064 0.7952620967744265 0 0.76901770135486491 0.84293557325473656 0 0.77094201086366854 0.79647480515688507 0 0.77094201086366854 0.79647480515688507 0 0.75841349681148107 0.75422312624214749 0 0.80185942888539485 0.77452061303608133 0 0.75841349681148107 0.75422312624214749 0 0.80185942888539485 0.77452061303608133 0 0.78578450296893509 0.73292684821144505 0 0.80185942888539485 0.77452061303608133 0 0.84725310900444062 0.80779732082917555 0 0.85491058998424563 0.76004753345552634 0 0.80185942888539485 0.77452061303608133 0 0.85491058998424563 0.76004753345552634 0 0.81864958914779962 0.73589050177899629 0 0.80041942726660109 0.81543261647703358 0 0.80185942888539485 0.77452061303608133 0 0.84725310900444062 0.80779732082917555 0 0.84725310900444062 0.80779732082917555 0 0.85491058998424563 0.76004753345552634 0 0.90299850604011456 0.79563452813489832 0 0.85491058998424563 0.76004753345552634 0 0.90299850604011456 0.79563452813489832 0 0.89999166460796554 0.74528934923809909 0 0.90299850604011456 0.79563452813489832 0 0.94399509803918602 0.75600490196082126 0 0.95386563387742829 0.80414874155775029 0 0.90299850604011456 0.79563452813489832 0 0.94399509803918602 0.75600490196082126 0 0.89999166460796554 0.74528934923809909 0 0.94399509803918602 0.75600490196082126 0 0.97435614836745565 0.77499999999987745 0 0.95386563387742829 0.80414874155775029 0 0.94399509803918602 0.75600490196082126 0 0.97435614836745565 0.77499999999987745 0 0.97166519676947294 0.73337114490064459 0 0.97435614836745565 0.77499999999987745 0 0.97166519676947294 0.73337114490064459 0 1 0.74999999999993494 0 0.97435614836745565 0.77499999999987745 0 1 0.7999999999998193 0 1 0.74999999999993494 0 0.97435614836745565 0.77499999999987745 0 1 0.7999999999998193 0 0.95386563387742829 0.80414874155775029 0 1 0.84999999999982645 0 0.93677536231884972 0.85000000000000286 0 0.95391631417670719 0.89584263333814784 0 0.95386563387742829 0.80414874155775029 0 1 0.84999999999982645 0 0.93677536231884972 0.85000000000000286 0 1 0.7999999999998193 0 0.95386563387742829 0.80414874155775029 0 1 0.84999999999982645 0 0.93677536231884972 0.85000000000000286 0 0.88088768115933802 0.84674609810493673 0 0.90416666666660628 0.9041666666666166 0 0.90299850604011456 0.79563452813489832 0 0.95386563387742829 0.80414874155775029 0 0.93677536231884972 0.85000000000000286 0 0.90299850604011456 0.79563452813489832 0 0.93677536231884972 0.85000000000000286 0 0.88088768115933802 0.84674609810493673 0 0.84725310900444062 0.80779732082917555 0 0.90299850604011456 0.79563452813489832 0 0.88088768115933802 0.84674609810493673 0 0.85600844944837662 0.88483418979512773 0 0.88088768115933802 0.84674609810493673 0 0.90416666666660628 0.9041666666666166 0 0.85170973911348691 0.93569607295217616 0 0.90416666666660628 0.9041666666666166 0 0.89898474358632463 0.95391965591118966 0 0.90416666666660628 0.9041666666666166 0 0.95391631417670719 0.89584263333814784 0 0.94399509803919068 0.9439950980391687 0 0.90416666666660628 0.9041666666666166 0 0.94399509803919068 0.9439950980391687 0 0.89898474358632463 0.95391965591118966 0 0.93677536231884972 0.85000000000000286 0 0.90416666666660628 0.9041666666666166 0 0.95391631417670719 0.89584263333814784 0 1 0.84999999999982645 0 0.95391631417670719 0.89584263333814784 0 1 0.8999999999998336 0 1 0.8999999999998336 0 0.97435614836744289 0.92499999999990257 0 1 0.94999999999997109 0 0.95391631417670719 0.89584263333814784 0 1 0.8999999999998336 0 0.97435614836744289 0.92499999999990257 0 0.95391631417670719 0.89584263333814784 0 0.97435614836744289 0.92499999999990257 0 0.94399509803919068 0.9439950980391687 0 0.97435614836744289 0.92499999999990257 0 0.94399509803919068 0.9439950980391687 0 0.97166519676946206 0.96662885509935492 0 0.97435614836744289 0.92499999999990257 0 0.97166519676946206 0.96662885509935492 0 1 0.94999999999997109 0 0.97166519676946206 0.96662885509935492 0 1 0.94999999999997109 0 1 1 0 0.97166519676946206 0.96662885509935492 0 1 1 0 0.94999999999979179 1 0 0.94399509803919068 0.9439950980391687 0 0.97166519676946206 0.96662885509935492 0 0.94999999999979179 1 0 0.94999999999979179 1 0 0.89898474358632463 0.95391965591118966 0 0.89999999999958358 1 0 0.94399509803919068 0.9439950980391687 0 0.94999999999979179 1 0 0.89898474358632463 0.95391965591118966 0 0.84999999999965292 1 0 0.89898474358632463 0.95391965591118966 0 0.89999999999958358 1 0 0.81723410853263523 0.59419663659258926 0 0.86956835336234861 0.571283299838105 0 0.82862096804812391 0.55037090955459045 0 0.81723410853263523 0.59419663659258926 0 0.87159648282691515 0.61285406320581504 0 0.83758014339878906 0.63222013025741819 0 0.81723410853263523 0.59419663659258926 0 0.79884539758237771 0.62875045078114233 0 0.83758014339878906 0.63222013025741819 0 0.81723410853263523 0.59419663659258926 0 0.87159648282691515 0.61285406320581504 0 0.86956835336234861 0.571283299838105 0 0.86956835336234861 0.571283299838105 0 0.86907294890112186 0.52008116128001669 0 0.82862096804812391 0.55037090955459045 0 0.86907294890112186 0.52008116128001669 0 0.81441713509985358 0.51161854125224959 0 0.82862096804812391 0.55037090955459045 0 0.86907294890112186 0.52008116128001669 0 0.81441713509985358 0.51161854125224959 0 0.84723782639812573 0.48638347960178252 0 0.81441713509985358 0.51161854125224959 0 0.82862096804812391 0.55037090955459045 0 0.77151014687832564 0.54436834383023036 0 0.81441713509985358 0.51161854125224959 0 0.77151014687832564 0.54436834383023036 0 0.77846603114747959 0.49850927265137401 0 0.77151014687832564 0.54436834383023036 0 0.77846603114747959 0.49850927265137401 0 0.73947346780852752 0.49062440112282169 0 0.71809016091162536 0.58185040402320831 0 0.77151014687832564 0.54436834383023036 0 0.77293540622714185 0.59448302402785813 0 0.81723410853263523 0.59419663659258926 0 0.77151014687832564 0.54436834383023036 0 0.77293540622714185 0.59448302402785813 0 0.81723410853263523 0.59419663659258926 0 0.82862096804812391 0.55037090955459045 0 0.77151014687832564 0.54436834383023036 0 0.81723410853263523 0.59419663659258926 0 0.77293540622714185 0.59448302402785813 0 0.79884539758237771 0.62875045078114233 0 0.74994237037456724 0.62775548192980357 0 0.77293540622714185 0.59448302402785813 0 0.79884539758237771 0.62875045078114233 0 0.74994237037456724 0.62775548192980357 0 0.7750489929959945 0.66593931409600093 0 0.79884539758237771 0.62875045078114233 0 0.74999999999999989 0.69999999999999996 0 0.72500000000000064 0.67022701834392062 0 0.7750489929959945 0.66593931409600093 0 0.7750489929959945 0.66593931409600093 0 0.79999999999999982 0.69999999999999996 0 0.82457059160610424 0.66831947184359608 0 0.7750489929959945 0.66593931409600093 0 0.79884539758237771 0.62875045078114233 0 0.82457059160610424 0.66831947184359608 0 0.74999999999999989 0.69999999999999996 0 0.75841349681148107 0.75422312624214749 0 0.78578450296893509 0.73292684821144505 0 0.74999999999999989 0.69999999999999996 0 0.79999999999999982 0.69999999999999996 0 0.78578450296893509 0.73292684821144505 0 0.74999999999999989 0.69999999999999996 0 0.7750489929959945 0.66593931409600093 0 0.79999999999999982 0.69999999999999996 0 0.74999999999999989 0.69999999999999996 0 0.79999999999999982 0.69999999999999996 0 0.80185942888539485 0.77452061303608133 0 0.78578450296893509 0.73292684821144505 0 0.81864958914779962 0.73589050177899629 0 0.79999999999999982 0.69999999999999996 0 0.78578450296893509 0.73292684821144505 0 0.81864958914779962 0.73589050177899629 0 0.85491058998424563 0.76004753345552634 0 0.81864958914779962 0.73589050177899629 0 0.84999999999999987 0.69999999999999996 0 0.79999999999999982 0.69999999999999996 0 0.84999999999999987 0.69999999999999996 0 0.79999999999999982 0.69999999999999996 0 0.84999999999999987 0.69999999999999996 0 0.82457059160610424 0.66831947184359608 0 0.79999999999999982 0.69999999999999996 0 0.81864958914779962 0.73589050177899629 0 0.84999999999999987 0.69999999999999996 0 0.84999999999999987 0.69999999999999996 0 0.89999999999999991 0.69999999999999996 0 0.85491058998424563 0.76004753345552634 0 0.84999999999999987 0.69999999999999996 0 0.89999166460796554 0.74528934923809909 0 0.79884539758237771 0.62875045078114233 0 0.83758014339878906 0.63222013025741819 0 0.82457059160610424 0.66831947184359608 0 0.84999999999999987 0.69999999999999996 0 0.82457059160610424 0.66831947184359608 0 0.87712158428786946 0.65709029563313581 0 0.87159648282691515 0.61285406320581504 0 0.83758014339878906 0.63222013025741819 0 0.87712158428786946 0.65709029563313581 0 0.83758014339878906 0.63222013025741819 0 0.82457059160610424 0.66831947184359608 0 0.87712158428786946 0.65709029563313581 0 0.87712158428786946 0.65709029563313581 0 0.92057473616084773 0.66770436535372446 0 0.91750694127105259 0.63017627779935648 0 0.87159648282691515 0.61285406320581504 0 0.87712158428786946 0.65709029563313581 0 0.91750694127105259 0.63017627779935648 0 0.84999999999999987 0.69999999999999996 0 0.87712158428786946 0.65709029563313581 0 0.89999999999999991 0.69999999999999996 0 0.87712158428786946 0.65709029563313581 0 0.92057473616084773 0.66770436535372446 0 0.89999999999999991 0.69999999999999996 0 0.92057473616084773 0.66770436535372446 0 0.91750694127105259 0.63017627779935648 0 0.9578014258160763 0.65787212321113708 0 0.84999999999999987 0.69999999999999996 0 0.89999166460796554 0.74528934923809909 0 0.89999999999999991 0.69999999999999996 0 0.89999999999999991 0.69999999999999996 0 0.94999999999999996 0.69999999999999996 0 0.92057473616084773 0.66770436535372446 0 0.89999999999999991 0.69999999999999996 0 0.94999999999999996 0.69999999999999996 0 0.89999166460796554 0.74528934923809909 0 0.89999999999999991 0.69999999999999996 0 0.94999999999999996 0.69999999999999996 0 0.94399509803918602 0.75600490196082126 0 0.89999166460796554 0.74528934923809909 0 0.94999999999999996 0.69999999999999996 0 0.94399509803918602 0.75600490196082126 0 0.94999999999999996 0.69999999999999996 0 0.97166519676947294 0.73337114490064459 0 0.94999999999999996 0.69999999999999996 0 1 0.69999999999999996 0 0.94999999999999996 0.69999999999999996 0 1 0.69999999999999996 0 0.97166519676947294 0.73337114490064459 0 1 0.69999999999999996 0 0.97166519676947294 0.73337114490064459 0 1 0.74999999999993494 0 0.91750694127105259 0.63017627779935648 0 0.9578014258160763 0.65787212321113708 0 0.95867599106212187 0.60011091146651041 0 0.92057473616084773 0.66770436535372446 0 0.94999999999999996 0.69999999999999996 0 0.9578014258160763 0.65787212321113708 0 0.94999999999999996 0.69999999999999996 0 1 0.69999999999999996 0 0.9578014258160763 0.65787212321113708 0 1 0.69999999999999996 0 0.9578014258160763 0.65787212321113708 0 1 0.64999999999986979 0 0.9578014258160763 0.65787212321113708 0 1 0.64999999999986979 0 0.95867599106212187 0.60011091146651041 0 0.95867599106212187 0.60011091146651041 0 0.93732437411268477 0.55911392101136159 0 1 0.54999999999963112 0 1 0.64999999999986979 0 1 0.59999999999973963 0 0.95867599106212187 0.60011091146651041 0 1 0.59999999999973963 0 0.95867599106212187 0.60011091146651041 0 1 0.54999999999963112 0 0.91750694127105259 0.63017627779935648 0 0.95867599106212187 0.60011091146651041 0 0.91143117093204207 0.58709913730335972 0 0.95867599106212187 0.60011091146651041 0 0.91143117093204207 0.58709913730335972 0 0.93732437411268477 0.55911392101136159 0 0.86956835336234861 0.571283299838105 0 0.91143117093204207 0.58709913730335972 0 0.90900154012161016 0.53607784105648792 0 0.87159648282691515 0.61285406320581504 0 0.86956835336234861 0.571283299838105 0 0.91143117093204207 0.58709913730335972 0 0.87159648282691515 0.61285406320581504 0 0.91750694127105259 0.63017627779935648 0 0.91143117093204207 0.58709913730335972 0 0.86907294890112186 0.52008116128001669 0 0.90900154012161016 0.53607784105648792 0 0.91696753777131557 0.497780560203536 0 0.86956835336234861 0.571283299838105 0 0.86907294890112186 0.52008116128001669 0 0.90900154012161016 0.53607784105648792 0 0.90900154012161016 0.53607784105648792 0 0.93732437411268477 0.55911392101136159 0 0.95631871884947484 0.51827533208233789 0 0.91143117093204207 0.58709913730335972 0 0.90900154012161016 0.53607784105648792 0 0.93732437411268477 0.55911392101136159 0 0.90900154012161016 0.53607784105648792 0 0.95631871884947484 0.51827533208233789 0 0.91696753777131557 0.497780560203536 0 0.93732437411268477 0.55911392101136159 0 0.95631871884947484 0.51827533208233789 0 1 0.54999999999963112 0 0.95631871884947484 0.51827533208233789 0 1 0.54999999999963112 0 1 0.49999999999950101 0 0.95631871884947484 0.51827533208233789 0 1 0.49999999999950101 0 0.96228564064454991 0.48206450662049471 0 1 0.49999999999950101 0 1 0.44999999999963131 0 0.96228564064454991 0.48206450662049471 0 1 0.44999999999963131 0 0.93814194660195893 0.44426664081746747 0 0.96228564064454991 0.48206450662049471 0 0.93814194660195893 0.44426664081746747 0 0.96228564064454991 0.48206450662049471 0 0.91696753777131557 0.497780560203536 0 0.95631871884947484 0.51827533208233789 0 0.96228564064454991 0.48206450662049471 0 0.91696753777131557 0.497780560203536 0 1 0.39999999999978308 0 0.95871855522754235 0.40006508612975411 0 1 0.34999999999993492 0 1 0.44999999999963131 0 1 0.39999999999978308 0 0.95871855522754235 0.40006508612975411 0 1 0.44999999999963131 0 0.93814194660195893 0.44426664081746747 0 0.95871855522754235 0.40006508612975411 0 0.95871855522754235 0.40006508612975411 0 0.90594285160987287 0.4141265964174129 0 0.91750694127107502 0.36982372220068471 0 0.93814194660195893 0.44426664081746747 0 0.95871855522754235 0.40006508612975411 0 0.90594285160987287 0.4141265964174129 0 0.90594285160987287 0.4141265964174129 0 0.88594198078881503 0.46167788676578442 0 0.86411095495256451 0.42388805655111889 0 0.90594285160987287 0.4141265964174129 0 0.86411095495256451 0.42388805655111889 0 0.86844634540301924 0.38530937474099819 0 0.90594285160987287 0.4141265964174129 0 0.86844634540301924 0.38530937474099819 0 0.91750694127107502 0.36982372220068471 0 0.93814194660195893 0.44426664081746747 0 0.91696753777131557 0.497780560203536 0 0.88594198078881503 0.46167788676578442 0 0.93814194660195893 0.44426664081746747 0 0.90594285160987287 0.4141265964174129 0 0.88594198078881503 0.46167788676578442 0 0.86907294890112186 0.52008116128001669 0 0.91696753777131557 0.497780560203536 0 0.88594198078881503 0.46167788676578442 0 0.86907294890112186 0.52008116128001669 0 0.88594198078881503 0.46167788676578442 0 0.84723782639812573 0.48638347960178252 0 0.81441713509985358 0.51161854125224959 0 0.84723782639812573 0.48638347960178252 0 0.81400510706333218 0.47357325943904899 0 0.84723782639812573 0.48638347960178252 0 0.81400510706333218 0.47357325943904899 0 0.84925632466077294 0.45359738909549091 0 0.81400510706333218 0.47357325943904899 0 0.84925632466077294 0.45359738909549091 0 0.81973119833356312 0.43505687159469048 0 0.88594198078881503 0.46167788676578442 0 0.84723782639812573 0.48638347960178252 0 0.84925632466077294 0.45359738909549091 0 0.84925632466077294 0.45359738909549091 0 0.86411095495256451 0.42388805655111889 0 0.81973119833356312 0.43505687159469048 0 0.88594198078881503 0.46167788676578442 0 0.84925632466077294 0.45359738909549091 0 0.86411095495256451 0.42388805655111889 0 0.86411095495256451 0.42388805655111889 0 0.86844634540301924 0.38530937474099819 0 0.81308179852519835 0.39754945808726527 0 0.86844634540301924 0.38530937474099819 0 0.81308179852519835 0.39754945808726527 0 0.83573492347052902 0.36590755630746369 0 0.86411095495256451 0.42388805655111889 0 0.81308179852519835 0.39754945808726527 0 0.81973119833356312 0.43505687159469048 0 0.81973119833356312 0.43505687159469048 0 0.77354604466818633 0.40378688774472771 0 0.77972660463949339 0.45529290596363098 0 0.81308179852519835 0.39754945808726527 0 0.81973119833356312 0.43505687159469048 0 0.77354604466818633 0.40378688774472771 0 0.81308179852519835 0.39754945808726527 0 0.77354604466818633 0.40378688774472771 0 0.78145581580700685 0.34881365920033602 0 0.77354604466818633 0.40378688774472771 0 0.77972660463949339 0.45529290596363098 0 0.73483647259922602 0.44789725365921768 0 0.77972660463949339 0.45529290596363098 0 0.73483647259922602 0.44789725365921768 0 0.73947346780852752 0.49062440112282169 0 0.77972660463949339 0.45529290596363098 0 0.77846603114747959 0.49850927265137401 0 0.73947346780852752 0.49062440112282169 0 0.81400510706333218 0.47357325943904899 0 0.77972660463949339 0.45529290596363098 0 0.77846603114747959 0.49850927265137401 0 0.81441713509985358 0.51161854125224959 0 0.81400510706333218 0.47357325943904899 0 0.77846603114747959 0.49850927265137401 0 0.81400510706333218 0.47357325943904899 0 0.81973119833356312 0.43505687159469048 0 0.77972660463949339 0.45529290596363098 0 0.79999999999999982 0.29999999999999999 0 0.77075983436335049 0.25919399014334171 0 0.81486180804364938 0.26321394949780091 0 0.79999999999999982 0.29999999999999999 0 0.74999999999999989 0.29999999999999999 0 0.79999999999999982 0.29999999999999999 0 0.77075983436335049 0.25919399014334171 0 0.74999999999999989 0.29999999999999999 0 0.79999999999999982 0.29999999999999999 0 0.78145581580700685 0.34881365920033602 0 0.74999999999999989 0.29999999999999999 0 0.78145581580700685 0.34881365920033602 0 0.73090396928863699 0.33699297293167962 0 0.74999999999999989 0.29999999999999999 0 0.77354604466818633 0.40378688774472771 0 0.78145581580700685 0.34881365920033602 0 0.74764719760526988 0.3719647154012321 0 0.78145581580700685 0.34881365920033602 0 0.74764719760526988 0.3719647154012321 0 0.73090396928863699 0.33699297293167962 0 0.81308179852519835 0.39754945808726527 0 0.78145581580700685 0.34881365920033602 0 0.83573492347052902 0.36590755630746369 0 0.79999999999999982 0.29999999999999999 0 0.78145581580700685 0.34881365920033602 0 0.82500000000000062 0.33010209762754811 0 0.78145581580700685 0.34881365920033602 0 0.82500000000000062 0.33010209762754811 0 0.83573492347052902 0.36590755630746369 0 0.82500000000000062 0.33010209762754811 0 0.83573492347052902 0.36590755630746369 0 0.87430060258887643 0.34056085888204451 0 0.86844634540301924 0.38530937474099819 0 0.83573492347052902 0.36590755630746369 0 0.87430060258887643 0.34056085888204451 0 0.82500000000000062 0.33010209762754811 0 0.87430060258887643 0.34056085888204451 0 0.84999999999999987 0.29999999999999999 0 0.87430060258887643 0.34056085888204451 0 0.84999999999999987 0.29999999999999999 0 0.89999999999999991 0.29999999999999999 0 0.84999999999999987 0.29999999999999999 0 0.81486180804364938 0.26321394949780091 0 0.8517097391133297 0.2356960729520409 0 0.84999999999999987 0.29999999999999999 0 0.89898474358614167 0.25391965591104898 0 0.8517097391133297 0.2356960729520409 0 0.84999999999999987 0.29999999999999999 0 0.89999999999999991 0.29999999999999999 0 0.79999999999999982 0.29999999999999999 0 0.82500000000000062 0.33010209762754811 0 0.84999999999999987 0.29999999999999999 0 0.79999999999999982 0.29999999999999999 0 0.84999999999999987 0.29999999999999999 0 0.81486180804364938 0.26321394949780091 0 0.79999999999999982 0.29999999999999999 0 0.84999999999999987 0.29999999999999999 0 0.84999999999999987 0.29999999999999999 0 0.89898474358614167 0.25391965591104898 0 0.89999999999999991 0.29999999999999999 0 0.89999999999999991 0.29999999999999999 0 0.94999999999999996 0.29999999999999999 0 0.89999999999999991 0.29999999999999999 0 0.92012390126144183 0.33123581297173937 0 0.94999999999999996 0.29999999999999999 0 0.89898474358614167 0.25391965591104898 0 0.89999999999999991 0.29999999999999999 0 0.94999999999999996 0.29999999999999999 0 0.89898474358614167 0.25391965591104898 0 0.94999999999999996 0.29999999999999999 0 0.94399509803921056 0.24399509803922639 0 0.86844634540301924 0.38530937474099819 0 0.87430060258887643 0.34056085888204451 0 0.91750694127107502 0.36982372220068471 0 0.87430060258887643 0.34056085888204451 0 0.92012390126144183 0.33123581297173937 0 0.91750694127107502 0.36982372220068471 0 0.87430060258887643 0.34056085888204451 0 0.89999999999999991 0.29999999999999999 0 0.92012390126144183 0.33123581297173937 0 0.92012390126144183 0.33123581297173937 0 0.91750694127107502 0.36982372220068471 0 0.95780851984364423 0.34215720972155339 0 0.95871855522754235 0.40006508612975411 0 0.91750694127107502 0.36982372220068471 0 0.95780851984364423 0.34215720972155339 0 0.92012390126144183 0.33123581297173937 0 0.95780851984364423 0.34215720972155339 0 0.94999999999999996 0.29999999999999999 0 0.95780851984364423 0.34215720972155339 0 0.94999999999999996 0.29999999999999999 0 1 0.29999999999999999 0 0.95780851984364423 0.34215720972155339 0 1 0.34999999999993492 0 1 0.29999999999999999 0 0.95871855522754235 0.40006508612975411 0 0.95780851984364423 0.34215720972155339 0 1 0.34999999999993492 0 0.94999999999999996 0.29999999999999999 0 0.97166519676951801 0.26662885509932011 0 0.94399509803921056 0.24399509803922639 0 0.94999999999999996 0.29999999999999999 0 1 0.29999999999999999 0 0.94999999999999996 0.29999999999999999 0 1 0.29999999999999999 0 0.97166519676951801 0.26662885509932011 0 1 0.29999999999999999 0 0.97166519676951801 0.26662885509932011 0 1 0.24999999999987299 0 0.97166519676951801 0.26662885509932011 0 0.97435614836740092 0.22499999999981049 0 1 0.24999999999987299 0 0.97435614836740092 0.22499999999981049 0 1 0.24999999999987299 0 1 0.19999999999974799 0 0.97435614836740092 0.22499999999981049 0 0.94399509803921056 0.24399509803922639 0 0.95391631417672862 0.19584263333809451 0 0.97166519676951801 0.26662885509932011 0 0.97435614836740092 0.22499999999981049 0 0.94399509803921056 0.24399509803922639 0 0.97435614836740092 0.22499999999981049 0 0.95391631417672862 0.19584263333809451 0 1 0.19999999999974799 0 0.95391631417672862 0.19584263333809451 0 1 0.14999999999961891 0 0.93677536231883773 0.14999999999999089 0 1 0.14999999999961891 0 0.93677536231883773 0.14999999999999089 0 0.95386563387744361 0.1041487415577465 0 0.95391631417672862 0.19584263333809451 0 1 0.19999999999974799 0 1 0.14999999999961891 0 0.95391631417672862 0.19584263333809451 0 0.93677536231883773 0.14999999999999089 0 0.90416666666668166 0.20416666666667119 0 0.93677536231883773 0.14999999999999089 0 0.88088768115941807 0.14674609810479519 0 0.90416666666668166 0.20416666666667119 0 0.93677536231883773 0.14999999999999089 0 0.88088768115941807 0.14674609810479519 0 0.90299850604006393 0.09563452813493091 0 0.88088768115941807 0.14674609810479519 0 0.90416666666668166 0.20416666666667119 0 0.85600844944842547 0.1848341897950983 0 0.89898474358614167 0.25391965591104898 0 0.90416666666668166 0.20416666666667119 0 0.8517097391133297 0.2356960729520409 0 0.89898474358614167 0.25391965591104898 0 0.94399509803921056 0.24399509803922639 0 0.90416666666668166 0.20416666666667119 0 0.94399509803921056 0.24399509803922639 0 0.95391631417672862 0.19584263333809451 0 0.90416666666668166 0.20416666666667119 0 0.94999999999986839 0 0 0.97166519676946894 0.033371144900598393 0 0.94399509803922566 0.056004901960802607 0 0.94999999999986839 0 0 1 0 0 0.97166519676946894 0.033371144900598393 0 1 0 0 1 0.049999999999896842 0 0.97166519676946894 0.033371144900598393 0 1 0.049999999999896842 0 0.97166519676946894 0.033371144900598393 0 0.97435614836748241 0.074999999999825387 0 0.97166519676946894 0.033371144900598393 0 0.94399509803922566 0.056004901960802607 0 0.97435614836748241 0.074999999999825387 0 0.94399509803922566 0.056004901960802607 0 0.97435614836748241 0.074999999999825387 0 0.95386563387744361 0.1041487415577465 0 0.97435614836748241 0.074999999999825387 0 1 0.099999999999753911 0 0.95386563387744361 0.1041487415577465 0 1 0.049999999999896842 0 0.97435614836748241 0.074999999999825387 0 1 0.099999999999753911 0 1 0.14999999999961891 0 1 0.099999999999753911 0 0.95386563387744361 0.1041487415577465 0 0.93677536231883773 0.14999999999999089 0 0.95386563387744361 0.1041487415577465 0 0.90299850604006393 0.09563452813493091 0 0.88088768115941807 0.14674609810479519 0 0.90299850604006393 0.09563452813493091 0 0.84725310900442086 0.10779732082922661 0 0.90299850604006393 0.09563452813493091 0 0.899991664607802 0.045289349238254978 0 0.85491058998398861 0.060047533455626502 0 0.94399509803922566 0.056004901960802607 0 0.95386563387744361 0.1041487415577465 0 0.90299850604006393 0.09563452813493091 0 0.94399509803922566 0.056004901960802607 0 0.90299850604006393 0.09563452813493091 0 0.899991664607802 0.045289349238254978 0 0.94999999999986839 0 0 0.94399509803922566 0.056004901960802607 0 0.899991664607802 0.045289349238254978 0 0.899991664607802 0.045289349238254978 0 0.89999999999973679 0 0 0.84999999999960507 0 0 0.94999999999986839 0 0 0.899991664607802 0.045289349238254978 0 0.89999999999973679 0 0 0.84999999999960507 0 0 0.81864958914740749 0.035890501779055867 0 0.79999999999947335 0 0 0.899991664607802 0.045289349238254978 0 0.84999999999960507 0 0 0.85491058998398861 0.060047533455626502 0 0.85491058998398861 0.060047533455626502 0 0.81864958914740749 0.035890501779055867 0 0.80185942888501827 0.074520613036224564 0 0.84999999999960507 0 0 0.85491058998398861 0.060047533455626502 0 0.81864958914740749 0.035890501779055867 0 0.85491058998398861 0.060047533455626502 0 0.84725310900442086 0.10779732082922661 0 0.80185942888501827 0.074520613036224564 0 0.90299850604006393 0.09563452813493091 0 0.85491058998398861 0.060047533455626502 0 0.84725310900442086 0.10779732082922661 0 0.84725310900442086 0.10779732082922661 0 0.80076557130237269 0.1154587552654202 0 0.80185942888501827 0.074520613036224564 0 0.84725310900442086 0.10779732082922661 0 0.80076557130237269 0.1154587552654202 0 0.82709327591102189 0.14937141670914489 0 0.80076557130237269 0.1154587552654202 0 0.76878382444651716 0.097147941686331368 0 0.80185942888501827 0.074520613036224564 0 0.76878382444651716 0.097147941686331368 0 0.77144070960558853 0.14311854477243749 0 0.72525833953073282 0.1032114801687094 0 0.80076557130237269 0.1154587552654202 0 0.76878382444651716 0.097147941686331368 0 0.77144070960558853 0.14311854477243749 0 0.76878382444651716 0.097147941686331368 0 0.80185942888501827 0.074520613036224564 0 0.7527966693318906 0.053051678021508272 0 0.81864958914740749 0.035890501779055867 0 0.80185942888501827 0.074520613036224564 0 0.78393852574753176 0.032039079577822822 0 0.80185942888501827 0.074520613036224564 0 0.78393852574753176 0.032039079577822822 0 0.7527966693318906 0.053051678021508272 0 0.78393852574753176 0.032039079577822822 0 0.7527966693318906 0.053051678021508272 0 0.74999999999934175 0 0 0.78393852574753176 0.032039079577822822 0 0.79999999999947335 0 0 0.74999999999934175 0 0 0.81864958914740749 0.035890501779055867 0 0.78393852574753176 0.032039079577822822 0 0.79999999999947335 0 0 0.81283102246527783 0.1881007222486438 0 0.8517097391133297 0.2356960729520409 0 0.79680861578956375 0.22656778056752541 0 0.81283102246527783 0.1881007222486438 0 0.8517097391133297 0.2356960729520409 0 0.85600844944842547 0.1848341897950983 0 0.81486180804364938 0.26321394949780091 0 0.8517097391133297 0.2356960729520409 0 0.79680861578956375 0.22656778056752541 0 0.90416666666668166 0.20416666666667119 0 0.8517097391133297 0.2356960729520409 0 0.85600844944842547 0.1848341897950983 0 0.88088768115941807 0.14674609810479519 0 0.85600844944842547 0.1848341897950983 0 0.82709327591102189 0.14937141670914489 0 0.88088768115941807 0.14674609810479519 0 0.84725310900442086 0.10779732082922661 0 0.82709327591102189 0.14937141670914489 0 0.81283102246527783 0.1881007222486438 0 0.85600844944842547 0.1848341897950983 0 0.82709327591102189 0.14937141670914489 0 0.81283102246527783 0.1881007222486438 0 0.77144070960558853 0.14311854477243749 0 0.76587607630038135 0.18880039518954719 0 0.81283102246527783 0.1881007222486438 0 0.82709327591102189 0.14937141670914489 0 0.77144070960558853 0.14311854477243749 0 0.80076557130237269 0.1154587552654202 0 0.82709327591102189 0.14937141670914489 0 0.77144070960558853 0.14311854477243749 0 0.77144070960558853 0.14311854477243749 0 0.76587607630038135 0.18880039518954719 0 0.72634814642510737 0.16106886917518889 0 0.76587607630038135 0.18880039518954719 0 0.79680861578956375 0.22656778056752541 0 0.75668890529066124 0.2244279804069782 0 0.81283102246527783 0.1881007222486438 0 0.76587607630038135 0.18880039518954719 0 0.79680861578956375 0.22656778056752541 0 0.77075983436335049 0.25919399014334171 0 0.81486180804364938 0.26321394949780091 0 0.79680861578956375 0.22656778056752541 0 0.77075983436335049 0.25919399014334171 0 0.79680861578956375 0.22656778056752541 0 0.75668890529066124 0.2244279804069782 0 0.77075983436335049 0.25919399014334171 0 0.75668890529066124 0.2244279804069782 0 0.72500000000000064 0.2498161764706 0 0.75668890529066124 0.2244279804069782 0 0.72500000000000064 0.2498161764706 0 0.72500000000001008 0.19776155966387679 0 0.72500000000000064 0.2498161764706 0 0.69397719155551807 0.2245125647000914 0 0.72500000000001008 0.19776155966387679 0 0.72500000000000064 0.2498161764706 0 0.69397719155551807 0.2245125647000914 0 0.67933712972090698 0.25920070958121938 0 0.69397719155551807 0.2245125647000914 0 0.72500000000001008 0.19776155966387679 0 0.6865991819015953 0.189116534044597 0 0.76587607630038135 0.18880039518954719 0 0.75668890529066124 0.2244279804069782 0 0.72500000000001008 0.19776155966387679 0 0.76587607630038135 0.18880039518954719 0 0.72500000000001008 0.19776155966387679 0 0.72634814642510737 0.16106886917518889 0 0.77144070960558853 0.14311854477243749 0 0.72634814642510737 0.16106886917518889 0 0.72525833953073282 0.1032114801687094 0 0.72634814642510737 0.16106886917518889 0 0.68391457121233579 0.14440470121196541 0 0.72525833953073282 0.1032114801687094 0 0.72500000000001008 0.19776155966387679 0 0.72634814642510737 0.16106886917518889 0 0.6865991819015953 0.189116534044597 0 0.72634814642510737 0.16106886917518889 0 0.68391457121233579 0.14440470121196541 0 0.6865991819015953 0.189116534044597 0 0.68391457121233579 0.14440470121196541 0 0.64011864159029941 0.18789607982138171 0 0.6865991819015953 0.189116534044597 0 0.68391457121233579 0.14440470121196541 0 0.65290632656860115 0.11434202593454081 0 0.6236733212988993 0.14864538214901801 0 0.68391457121233579 0.14440470121196541 0 0.64011864159029941 0.18789607982138171 0 0.6236733212988993 0.14864538214901801 0 0.64011864159029941 0.18789607982138171 0 0.65394964615507722 0.22666784374016369 0 0.59814117807200873 0.23398510860739519 0 0.65394964615507722 0.22666784374016369 0 0.59814117807200873 0.23398510860739519 0 0.62657463266645097 0.26524202571255862 0 0.69397719155551807 0.2245125647000914 0 0.65394964615507722 0.22666784374016369 0 0.67933712972090698 0.25920070958121938 0 0.64011864159029941 0.18789607982138171 0 0.65394964615507722 0.22666784374016369 0 0.6865991819015953 0.189116534044597 0 0.69397719155551807 0.2245125647000914 0 0.65394964615507722 0.22666784374016369 0 0.6865991819015953 0.189116534044597 0 0.69999999999921003 0 0 0.72683645290270404 0.027797073151180601 0 0.7010294155333181 0.056779085686491267 0 0.69999999999921003 0 0 0.7010294155333181 0.056779085686491267 0 0.66369801598854572 0.036327466368102787 0 0.7527966693318906 0.053051678021508272 0 0.74999999999934175 0 0 0.72683645290270404 0.027797073151180601 0 0.69999999999921003 0 0 0.74999999999934175 0 0 0.72683645290270404 0.027797073151180601 0 0.7527966693318906 0.053051678021508272 0 0.72683645290270404 0.027797073151180601 0 0.7010294155333181 0.056779085686491267 0 0.7010294155333181 0.056779085686491267 0 0.72525833953073282 0.1032114801687094 0 0.68330259535470161 0.10038702501083881 0 0.7527966693318906 0.053051678021508272 0 0.7010294155333181 0.056779085686491267 0 0.72525833953073282 0.1032114801687094 0 0.76878382444651716 0.097147941686331368 0 0.7527966693318906 0.053051678021508272 0 0.72525833953073282 0.1032114801687094 0 0.68391457121233579 0.14440470121196541 0 0.72525833953073282 0.1032114801687094 0 0.68330259535470161 0.10038702501083881 0 0.68330259535470161 0.10038702501083881 0 0.65290632656860115 0.11434202593454081 0 0.65408113592120842 0.073941773121567966 0 0.68391457121233579 0.14440470121196541 0 0.68330259535470161 0.10038702501083881 0 0.65290632656860115 0.11434202593454081 0 0.65290632656860115 0.11434202593454081 0 0.61956000905586006 0.1043312481793135 0 0.6236733212988993 0.14864538214901801 0 0.65290632656860115 0.11434202593454081 0 0.65408113592120842 0.073941773121567966 0 0.61956000905586006 0.1043312481793135 0 0.65408113592120842 0.073941773121567966 0 0.61940220174112337 0.047251958781050582 0 0.61956000905586006 0.1043312481793135 0 0.7010294155333181 0.056779085686491267 0 0.68330259535470161 0.10038702501083881 0 0.65408113592120842 0.073941773121567966 0 0.7010294155333181 0.056779085686491267 0 0.65408113592120842 0.073941773121567966 0 0.66369801598854572 0.036327466368102787 0 0.65408113592120842 0.073941773121567966 0 0.66369801598854572 0.036327466368102787 0 0.61940220174112337 0.047251958781050582 0 0.66369801598854572 0.036327466368102787 0 0.64999999999907843 0 0 0.61940220174112337 0.047251958781050582 0 0.69999999999921003 0 0 0.66369801598854572 0.036327466368102787 0 0.64999999999907843 0 0 0.59999999999894682 0 0 0.57396793757665954 0.037011367187645222 0 0.5499999999988151 0 0 0.64999999999907843 0 0 0.59999999999894682 0 0 0.61940220174112337 0.047251958781050582 0 0.59999999999894682 0 0 0.61940220174112337 0.047251958781050582 0 0.57396793757665954 0.037011367187645222 0 0.61940220174112337 0.047251958781050582 0 0.57396793757665954 0.037011367187645222 0 0.57667858002728545 0.078486105337742612 0 0.61940220174112337 0.047251958781050582 0 0.57667858002728545 0.078486105337742612 0 0.61956000905586006 0.1043312481793135 0 0.61956000905586006 0.1043312481793135 0 0.58516465772821369 0.11653801664834119 0 0.6236733212988993 0.14864538214901801 0 0.57667858002728545 0.078486105337742612 0 0.61956000905586006 0.1043312481793135 0 0.58516465772821369 0.11653801664834119 0 0.58516465772821369 0.11653801664834119 0 0.54979595918804436 0.1060565713905809 0 0.56202748619534593 0.15054058349222879 0 0.57667858002728545 0.078486105337742612 0 0.58516465772821369 0.11653801664834119 0 0.54979595918804436 0.1060565713905809 0 0.54979595918804436 0.1060565713905809 0 0.51076801031701946 0.1202837388510348 0 0.52375890611712683 0.059318771819432882 0 0.47881186583059909 0.093591717165689425 0 0.51076801031701946 0.1202837388510348 0 0.52375890611712683 0.059318771819432882 0 0.57667858002728545 0.078486105337742612 0 0.54979595918804436 0.1060565713905809 0 0.52375890611712683 0.059318771819432882 0 0.57396793757665954 0.037011367187645222 0 0.52375890611712683 0.059318771819432882 0 0.5499999999988151 0 0 0.57396793757665954 0.037011367187645222 0 0.57667858002728545 0.078486105337742612 0 0.52375890611712683 0.059318771819432882 0 0.49999999999869432 0 0 0.52375890611712683 0.059318771819432882 0 0.5499999999988151 0 0 0.59814117807200873 0.23398510860739519 0 0.59443395090188023 0.18455690917515069 0 0.55306006949600994 0.20198184231352201 0 0.59814117807200873 0.23398510860739519 0 0.55306006949600994 0.20198184231352201 0 0.54248833945060504 0.2520322959927106 0 0.64011864159029941 0.18789607982138171 0 0.59814117807200873 0.23398510860739519 0 0.59443395090188023 0.18455690917515069 0 0.64011864159029941 0.18789607982138171 0 0.59443395090188023 0.18455690917515069 0 0.6236733212988993 0.14864538214901801 0 0.58516465772821369 0.11653801664834119 0 0.6236733212988993 0.14864538214901801 0 0.56202748619534593 0.15054058349222879 0 0.59443395090188023 0.18455690917515069 0 0.6236733212988993 0.14864538214901801 0 0.56202748619534593 0.15054058349222879 0 0.59443395090188023 0.18455690917515069 0 0.56202748619534593 0.15054058349222879 0 0.55306006949600994 0.20198184231352201 0 0.56202748619534593 0.15054058349222879 0 0.51729576145820033 0.1683240575987815 0 0.55306006949600994 0.20198184231352201 0 0.54979595918804436 0.1060565713905809 0 0.51076801031701946 0.1202837388510348 0 0.56202748619534593 0.15054058349222879 0 0.48466639505193998 0.1421439844745814 0 0.51076801031701946 0.1202837388510348 0 0.51729576145820033 0.1683240575987815 0 0.51076801031701946 0.1202837388510348 0 0.56202748619534593 0.15054058349222879 0 0.51729576145820033 0.1683240575987815 0 0.51729576145820033 0.1683240575987815 0 0.50760557329222289 0.20700468884612061 0 0.55306006949600994 0.20198184231352201 0 0.50760557329222289 0.20700468884612061 0 0.55306006949600994 0.20198184231352201 0 0.54248833945060504 0.2520322959927106 0 0.49695729691142171 0.25014895411178018 0 0.50760557329222289 0.20700468884612061 0 0.54248833945060504 0.2520322959927106 0 0.49695729691142171 0.25014895411178018 0 0.5 0.29999999999999999 0 0.54248833945060504 0.2520322959927106 0 0.5 0.29999999999999999 0 0.54999999999999993 0.29999999999999999 0 0.52752007115234678 0.33170632466418198 0 0.5 0.29999999999999999 0 0.54999999999999993 0.29999999999999999 0 0.54248833945060504 0.2520322959927106 0 0.5 0.29999999999999999 0 0.54999999999999993 0.29999999999999999 0 0.54999999999999993 0.29999999999999999 0 0.54248833945060504 0.2520322959927106 0 0.5794309697024993 0.27124795968204829 0 0.59814117807200873 0.23398510860739519 0 0.54248833945060504 0.2520322959927106 0 0.5794309697024993 0.27124795968204829 0 0.54999999999999993 0.29999999999999999 0 0.59999999999999976 0.29999999999999999 0 0.54999999999999993 0.29999999999999999 0 0.5794309697024993 0.27124795968204829 0 0.59999999999999976 0.29999999999999999 0 0.59999999999999976 0.29999999999999999 0 0.6499999999999998 0.29999999999999999 0 0.5794309697024993 0.27124795968204829 0 0.59999999999999976 0.29999999999999999 0 0.62657463266645097 0.26524202571255862 0 0.59814117807200873 0.23398510860739519 0 0.5794309697024993 0.27124795968204829 0 0.62657463266645097 0.26524202571255862 0 0.61959173890754571 0.33832250091341232 0 0.56836770495988642 0.3523062350852913 0 0.6084546825910605 0.37989672713932537 0 0.59999999999999976 0.29999999999999999 0 0.61959173890754571 0.33832250091341232 0 0.6499999999999998 0.29999999999999999 0 0.59999999999999976 0.29999999999999999 0 0.61959173890754571 0.33832250091341232 0 0.56836770495988642 0.3523062350852913 0 0.54999999999999993 0.29999999999999999 0 0.59999999999999976 0.29999999999999999 0 0.56836770495988642 0.3523062350852913 0 0.56836770495988642 0.3523062350852913 0 0.52752007115234678 0.33170632466418198 0 0.52289427570932567 0.3932284363388488 0 0.54999999999999993 0.29999999999999999 0 0.56836770495988642 0.3523062350852913 0 0.52752007115234678 0.33170632466418198 0 0.49077833859261139 0.35229981449445641 0 0.5 0.29999999999999999 0 0.52752007115234678 0.33170632466418198 0 0.49077833859261139 0.35229981449445641 0 0.52752007115234678 0.33170632466418198 0 0.52289427570932567 0.3932284363388488 0 0.56836770495988642 0.3523062350852913 0 0.52289427570932567 0.3932284363388488 0 0.57744073070774993 0.41535148636609359 0 0.52289427570932567 0.3932284363388488 0 0.53823865529665704 0.45873898050322898 0 0.57744073070774993 0.41535148636609359 0 0.48858720058566618 0.43964267759203868 0 0.52289427570932567 0.3932284363388488 0 0.53823865529665704 0.45873898050322898 0 0.49102375406324739 0.49123754822244059 0 0.53330375813596242 0.50827942741749099 0 0.53823865529665704 0.45873898050322898 0 0.49102375406324739 0.49123754822244059 0 0.48858720058566618 0.43964267759203868 0 0.53823865529665704 0.45873898050322898 0 0.53330375813596242 0.50827942741749099 0 0.57611405284611883 0.50165903596042916 0 0.53823865529665704 0.45873898050322898 0 0.57611405284611883 0.50165903596042916 0 0.57975577671020095 0.46172033326338591 0 0.61547661924074692 0.48539576058873962 0 0.57611405284611883 0.50165903596042916 0 0.53823865529665704 0.45873898050322898 0 0.57975577671020095 0.46172033326338591 0 0.57975577671020095 0.46172033326338591 0 0.61209567303293111 0.44669033081290321 0 0.57744073070774993 0.41535148636609359 0 0.53823865529665704 0.45873898050322898 0 0.57975577671020095 0.46172033326338591 0 0.57744073070774993 0.41535148636609359 0 0.57975577671020095 0.46172033326338591 0 0.61209567303293111 0.44669033081290321 0 0.61547661924074692 0.48539576058873962 0 0.56836770495988642 0.3523062350852913 0 0.57744073070774993 0.41535148636609359 0 0.6084546825910605 0.37989672713932537 0 0.61209567303293111 0.44669033081290321 0 0.57744073070774993 0.41535148636609359 0 0.63912439215427275 0.41063340167983359 0 0.57744073070774993 0.41535148636609359 0 0.6084546825910605 0.37989672713932537 0 0.63912439215427275 0.41063340167983359 0 0.6084546825910605 0.37989672713932537 0 0.63912439215427275 0.41063340167983359 0 0.65481233915350323 0.35652751921065562 0 0.63912439215427275 0.41063340167983359 0 0.65178832218679827 0.45929119821019959 0 0.6879972333610942 0.43038561374960838 0 0.63912439215427275 0.41063340167983359 0 0.68128176404677243 0.38629093627004979 0 0.6879972333610942 0.43038561374960838 0 0.63912439215427275 0.41063340167983359 0 0.68128176404677243 0.38629093627004979 0 0.65481233915350323 0.35652751921065562 0 0.61547661924074692 0.48539576058873962 0 0.6541250972820879 0.49999999999999989 0 0.65178832218679827 0.45929119821019959 0 0.61209567303293111 0.44669033081290321 0 0.61547661924074692 0.48539576058873962 0 0.65178832218679827 0.45929119821019959 0 0.61209567303293111 0.44669033081290321 0 0.63912439215427275 0.41063340167983359 0 0.65178832218679827 0.45929119821019959 0 0.65178832218679827 0.45929119821019959 0 0.69385896817107129 0.48377516041410151 0 0.6879972333610942 0.43038561374960838 0 0.6541250972820879 0.49999999999999989 0 0.65178832218679827 0.45929119821019959 0 0.69385896817107129 0.48377516041410151 0 0.7152569930854884 0.5237994455134295 0 0.69385896817107129 0.48377516041410151 0 0.73947346780852752 0.49062440112282169 0 0.69385896817107129 0.48377516041410151 0 0.73483647259922602 0.44789725365921768 0 0.6879972333610942 0.43038561374960838 0 0.69385896817107129 0.48377516041410151 0 0.73483647259922602 0.44789725365921768 0 0.73947346780852752 0.49062440112282169 0 0.68128176404677243 0.38629093627004979 0 0.72622533758026719 0.40265885511101601 0 0.71508799138962864 0.36622814920737751 0 0.73483647259922602 0.44789725365921768 0 0.6879972333610942 0.43038561374960838 0 0.72622533758026719 0.40265885511101601 0 0.68128176404677243 0.38629093627004979 0 0.6879972333610942 0.43038561374960838 0 0.72622533758026719 0.40265885511101601 0 0.77354604466818633 0.40378688774472771 0 0.73483647259922602 0.44789725365921768 0 0.72622533758026719 0.40265885511101601 0 0.72622533758026719 0.40265885511101601 0 0.74764719760526988 0.3719647154012321 0 0.71508799138962864 0.36622814920737751 0 0.77354604466818633 0.40378688774472771 0 0.72622533758026719 0.40265885511101601 0 0.74764719760526988 0.3719647154012321 0 0.74764719760526988 0.3719647154012321 0 0.71508799138962864 0.36622814920737751 0 0.73090396928863699 0.33699297293167962 0 0.71508799138962864 0.36622814920737751 0 0.68887083591306764 0.33632058575757479 0 0.73090396928863699 0.33699297293167962 0 0.68128176404677243 0.38629093627004979 0 0.71508799138962864 0.36622814920737751 0 0.68887083591306764 0.33632058575757479 0 0.68887083591306764 0.33632058575757479 0 0.73090396928863699 0.33699297293167962 0 0.69999999999999984 0.29999999999999999 0 0.72500000000000064 0.2498161764706 0 0.74999999999999989 0.29999999999999999 0 0.69999999999999984 0.29999999999999999 0 0.74999999999999989 0.29999999999999999 0 0.69999999999999984 0.29999999999999999 0 0.73090396928863699 0.33699297293167962 0 0.74999999999999989 0.29999999999999999 0 0.69999999999999984 0.29999999999999999 0 0.77075983436335049 0.25919399014334171 0 0.72500000000000064 0.2498161764706 0 0.74999999999999989 0.29999999999999999 0 0.72500000000000064 0.2498161764706 0 0.69999999999999984 0.29999999999999999 0 0.67933712972090698 0.25920070958121938 0 0.69999999999999984 0.29999999999999999 0 0.67933712972090698 0.25920070958121938 0 0.6499999999999998 0.29999999999999999 0 0.68887083591306764 0.33632058575757479 0 0.69999999999999984 0.29999999999999999 0 0.6499999999999998 0.29999999999999999 0 0.69999999999999984 0.29999999999999999 0 0.6499999999999998 0.29999999999999999 0 0.67933712972090698 0.25920070958121938 0 0.62657463266645097 0.26524202571255862 0 0.6499999999999998 0.29999999999999999 0 0.65394964615507722 0.22666784374016369 0 0.67933712972090698 0.25920070958121938 0 0.62657463266645097 0.26524202571255862 0 0.59999999999999976 0.29999999999999999 0 0.62657463266645097 0.26524202571255862 0 0.6499999999999998 0.29999999999999999 0 0.61959173890754571 0.33832250091341232 0 0.6499999999999998 0.29999999999999999 0 0.65481233915350323 0.35652751921065562 0 0.61959173890754571 0.33832250091341232 0 0.6084546825910605 0.37989672713932537 0 0.65481233915350323 0.35652751921065562 0 0.68128176404677243 0.38629093627004979 0 0.68887083591306764 0.33632058575757479 0 0.65481233915350323 0.35652751921065562 0 0.68887083591306764 0.33632058575757479 0 0.6499999999999998 0.29999999999999999 0 0.65481233915350323 0.35652751921065562 0 
</DataArray>
</Points>
<Cells>
<DataArray type="UInt32" Name="connectivity" format="ascii">
0 1 2 3 4 5 6 7 8 9 10 11 12 13 14 15 16 17 18 19 20 21 22 23 24 25 26 27 28 29 30 31 32 33 34 35 36 37 38 39 40 41 42 43 44 45 46 47 48 49 50 51 52 53 54 55 56 57 58 59 60 61 62 63 64 65 66 67 68 69 70 71 72 73 74 75 76 77 78 79 80 81 82 83 84 85 86 87 88 89 90 91 92 93 94 95 96 97 98 99 100 101 102 103 104 105 106 107 108 109 110 111 112 113 114 115 116 117 118 119 120 121 122 123 124 125 126 127 128 129 130 131 132 133 134 135 136 137 138 139 140 141 142 143 144 145 146 147 148 149 150 151 152 153 154 155 156 157 158 159 160 161 162 163 164 165 166 167 168 169 170 171 172 173 174 175 176 177 178 179 180 181 182 183 184 185 186 187 188 189 190 191 192 193 194 195 196 197 198 199 200 201 202 203 204 205 206 207 208 209 210 211 212 213 214 215 216 217 218 219 220 221 222 223 224 225 226 227 228 229 230 231 232 233 234 235 236 237 238 239 240 241 242 243 244 245 246 247 248 249 250 251 252 253 254 255 256 257 258 259 260 261 262 263 264 265 266 267 268 269 270 271 272 273 274 275 276 277 278 279 280 281 282 283 284 285 286 287 288 289 290 291 292 293 294 295 296 297 298 299 300 301 302 303 304 305 306 307 308 309 310 311 312 313 314 315 316 317 318 319 320 321 322 323 324 325 326 327 328 329 330 331 332 333 334 335 336 337 338 339 340 341 342 343 344 345 346 347 348 349 350 351 352 353 354 355 356 357 358 359 360 361 362 363 364 365 366 367 368 369 370 371 372 373 374 375 376 377 378 379 380 381 382 383 384 385 386 387 388 389 390 391 392 393 394 395 396 397 398 399 400 401 402 403 404 405 406 407 408 409 410 411 412 413 414 415 416 417 418 419 420 421 422 423 424 425 426 427 428 429 430 431 432 433 434 435 436 437 438 439 440 441 442 443 444 445 446 447 448 449 450 451 452 453 454 455 456 457 458 459 460 461 462 463 464 465 466 467 468 469 470 471 472 473 474 475 476 477 478 479 480 481 482 483 484 485 486 487 488 489 490 491 492 493 494 495 496 497 498 499 500 501 502 503 504 505 506 507 508 509 510 511 512 513 514 515 516 517 518 519 520 521 522 523 524 525 526 527 528 529 530 531 532 533 534 535 536 537 538 539 540 541 542 543 544 545 546 547 548 549 550 551 552 553 554 555 556 557 558 559 560 561 562 563 564 565 566 567 568 569 570 571 572 573 574 575 576 577 578 579 580 581 582 583 584 585 586 587 588 589 590 591 592 593 594 595 596 597 598 599 600 601 602 603 604 605 606 607 608 609 610 611 612 613 614 615 616 617 618 619 620 621 622 623 624 625 626 627 628 629 630 631 632 633 634 635 636 637 638 639 640 641 642 643 644 645 646 647 648 649 650 651 652 653 654 655 656 657 658 659 660 661 662 663 664 665 666 667 668 669 670 671 672 673 674 675 676 677 678 679 680 681 682 683 684 685 686 687 688 689 690 691 692 693 694 695 696 697 698 699 700 701 702 703 704 705 706 707 708 709 710 711 712 713 714 715 716 717 718 719 720 721 722 723 724 725 726 727 728 729 730 731 732 733 734 735 736 737 738 739 740 741 742 743 744 745 746 747 748 749 750 751 752 753 754 755 756 757 758 759 760 761 762 763 764 765 766 767 768 769 770 771 772 773 774 775 776 777 778 779 780 781 782 783 784 785 786 787 788 789 790 791 792 793 794 795 796 797 798 799 800 801 802 803 804 805 806 807 808 809 810 811 812 813 814 815 816 817 818 819 820 821 822 823 824 825 826 827 828 829 830 831 832 833 834 835 836 837 838 839 840 841 842 843 844 845 846 847 848 849 850 851 852 853 854 855 856 857 858 859 860 861 862 863 864 865 866 867 868 869 870 871 872 873 874 875 876 877 878 879 880 881 882 883 884 885 886 887 888 889 890 891 892 893 894 895 896 897 898 899 900 901 902 903 904 905 906 907 908 909 910 911 912 913 914 915 916 917 918 919 920 921 922 923 924 925 926 927 928 929 930 931 932 933 934 935 936 937 938 939 940 941 942 943 944 945 946 947 948 949 950 951 952 953 954 955 956 957 958 959 960 961 962 963 964 965 966 967 968 969 970 971 972 973 974 975 976 977 978 979 980 981 982 983 984 985 986 987 988 989 990 991 992 993 994 995 996 997 998 999 1000 1001 1002 1003 1004 1005 1006 1007 1008 1009 1010 1011 1012 1013 1014 1015 1016 1017 1018 1019 1020 1021 1022 1023 1024 1025 1026 1027 1028 1029 1030 1031 1032 1033 1034 1035 1036 1037 1038 1039 1040 1041 1042 1043 1044 1045 1046 1047 1048 1049 1050 1051 1052 1053 1054 1055 1056 1057 1058 1059 1060 1061 1062 1063 1064 1065 1066 1067 1068 1069 1070 1071 1072 1073 1074 1075 1076 1077 1078 1079 1080 1081 1082 1083 1084 1085 1086 1087 1088 1089 1090 1091 1092 1093 1094 1095 1096 1097 1098 1099 1100 1101 1102 1103 1104 1105 1106 1107 1108 1109 1110 1111 1112 1113 1114 1115 1116 1117 1118 1119 1120 1121 1122 1123 1124 1125 1126 1127 1128 1129 1130 1131 1132 1133 1134 1135 1136 1137 1138 1139 1140 1141 1142 1143 1144 1145 1146 1147 1148 1149 1150 1151 1152 1153 1154 1155 1156 1157 1158 1159 1160 1161 1162 1163 1164 1165 1166 1167 1168 1169 1170 1171 1172 1173 1174 1175 1176 1177 1178 1179 1180 1181 1182 1183 1184 1185 1186 1187 1188 1189 1190 1191 1192 1193 1194 1195 1196 1197 1198 1199 1200 1201 1202 1203 1204 1205 1206 1207 1208 1209 1210 1211 1212 1213 1214 1215 1216 1217 1218 1219 1220 1221 1222 1223 1224 1225 1226 1227 1228 1229 1230 1231 1232 1233 1234 1235 1236 1237 1238 1239 1240 1241 1242 1243 1244 1245 1246 1247 1248 1249 1250 1251 1252 1253 1254 1255 1256 1257 1258 1259 1260 1261 1262 1263 1264 1265 1266 1267 1268 1269 1270 1271 1272 1273 1274 1275 1276 1277 1278 1279 1280 1281 1282 1283 1284 1285 1286 1287 1288 1289 1290 1291 1292 1293 1294 1295 1296 1297 1298 1299 1300 1301 1302 1303 1304 1305 1306 1307 1308 1309 1310 1311 1312 1313 1314 1315 1316 1317 1318 1319 1320 1321 1322 1323 1324 1325 1326 1327 1328 1329 1330 1331 1332 1333 1334 1335 1336 1337 1338 1339 1340 1341 1342 1343 1344 1345 1346 1347 1348 1349 1350 1351 1352 1353 1354 1355 1356 1357 1358 1359 1360 1361 1362 1363 1364 1365 1366 1367 1368 1369 1370 1371 1372 1373 1374 1375 1376 1377 1378 1379 1380 1381 1382 1383 1384 1385 1386 1387 1388 1389 1390 1391 1392 1393 1394 1395 1396 1397 1398 1399 1400 1401 1402 1403 1404 1405 1406 1407 1408 1409 1410 1411 1412 1413 1414 1415 1416 1417 1418 1419 1420 1421 1422 1423 1424 1425 1426 1427 1428 1429 1430 1431 1432 1433 1434 1435 1436 1437 1438 1439 1440 1441 1442 1443 1444 1445 1446 1447 1448 1449 1450 1451 1452 1453 1454 1455 1456 1457 1458 1459 1460 1461 1462 1463 1464 1465 1466 1467 1468 1469 1470 1471 1472 1473 1474 1475 1476 1477 1478 1479 1480 1481 1482 1483 1484 1485 1486 1487 1488 1489 1490 1491 1492 1493 1494 1495 1496 1497 1498 1499 1500 1501 1502 1503 1504 1505 1506 1507 1508 1509 1510 1511 1512 1513 1514 1515 1516 1517 1518 1519 1520 1521 1522 1523 1524 1525 1526 1527 1528 1529 1530 1531 1532 1533 1534 1535 1536 1537 1538 1539 1540 1541 1542 1543 1544 1545 1546 1547 1548 1549 1550 1551 1552 1553 1554 1555 1556 1557 1558 1559 1560 1561 1562 1563 1564 1565 1566 1567 1568 1569 1570 1571 1572 1573 1574 1575 1576 1577 1578 1579 1580 1581 1582 1583 1584 1585 1586 1587 1588 1589 1590 1591 1592 1593 1594 1595 1596 1597 1598 1599 1600 1601 1602 1603 1604 1605 1606 1607 1608 1609 1610 1611 1612 1613 1614 1615 1616 1617 1618 1619 1620 1621 1622 1623 1624 1625 1626 1627 1628 1629 1630 1631 1632 1633 1634 1635 1636 1637 1638 1639 1640 1641 1642 1643 1644 1645 1646 1647 1648 1649 1650 1651 1652 1653 1654 1655 1656 1657 1658 1659 1660 1661 1662 1663 1664 1665 1666 1667 1668 1669 1670 1671 1672 1673 1674 1675 1676 1677 1678 1679 1680 1681 1682 1683 1684 1685 1686 1687 1688 1689 1690 1691 1692 1693 1694 1695 1696 1697 1698 1699 1700 1701 1702 1703 1704 1705 1706 1707 1708 1709 1710 1711 1712 1713 1714 1715 1716 1717 1718 1719 1720 1721 1722 1723 1724 1725 1726 1727 1728 1729 1730 1731 1732 1733 1734 1735 1736 1737 1738 1739 1740 1741 1742 1743 1744 1745 1746 1747 1748 1749 1750 1751 1752 1753 1754 1755 1756 1757 1758 1759 1760 1761 1762 1763 1764 1765 1766 1767 1768 1769 1770 1771 1772 1773 1774 1775 1776 1777 1778 1779 1780 1781 1782 1783 1784 1785 1786 1787 1788 1789 1790 1791 1792 1793 1794 1795 1796 1797 1798 1799 1800 1801 1802 1803 1804 1805 1806 1807 1808 1809 1810 1811 1812 1813 1814 1815 1816 1817 1818 1819 1820 1821 1822 1823 1824 1825 1826 1827 1828 1829 1830 1831 1832 1833 1834 1835 1836 1837 1838 1839 1840 1841 1842 1843 1844 1845 1846 1847 1848 1849 1850 1851 1852 1853 1854 1855 1856 1857 1858 1859 1860 1861 1862 1863 1864 1865 1866 1867 1868 1869 1870 1871 1872 1873 1874 1875 1876 1877 1878 1879 1880 1881 1882 1883 1884 1885 1886 1887 1888 1889 1890 1891 1892 1893 1894 1895 1896 1897 1898 1899 1900 1901 1902 1903 1904 1905 1906 1907 1908 1909 1910 1911 1912 1913 1914 1915 1916 1917 1918 1919 1920 1921 1922 1923 1924 1925 1926 1927 1928 1929 1930 1931 1932 1933 1934 1935 1936 1937 1938 1939 1940 1941 1942 1943 1944 1945 1946 1947 1948 1949 1950 1951 1952 1953 1954 1955 1956 1957 1958 1959 1960 1961 1962 1963 1964 1965 1966 1967 1968 1969 1970 1971 1972 1973 1974 1975 1976 1977 1978 1979 1980 1981 1982 1983 1984 1985 1986 1987 1988 1989 1990 1991 1992 1993 1994 1995 1996 1997 1998 1999 2000 2001 2002 2003 2004 2005 2006 2007 2008 2009 2010 2011 2012 2013 2014 2015 2016 2017 2018 2019 2020 2021 2022 2023 2024 2025 2026 2027 2028 2029 2030 2031 2032 2033 2034 2035 2036 2037 2038 2039 2040 2041 2042 2043 2044 2045 2046 2047 2048 2049 2050 2051 2052 2053 2054 2055 2056 2057 2058 2059 2060 2061 2062 2063 2064 2065 2066 2067 2068 2069 2070 2071 2072 2073 2074 2075 2076 2077 2078 2079 2080 2081 2082 2083 2084 2085 2086 2087 2088 2089 2090 2091 2092 2093 2094 2095 2096 2097 2098 2099 2100 2101 2102 2103 2104 2105 2106 2107 2108 2109 2110 2111 2112 2113 2114 2115 2116 2117 2118 2119 2120 2121 2122 2123 2124 2125 2126 2127 2128 2129 2130 2131 2132 2133 2134 2135 2136 2137 2138 2139 2140 2141 2142 2143 2144 2145 2146 2147 2148 2149 2150 2151 2152 2153 2154 2155 2156 2157 2158 2159 2160 2161 2162 2163 2164 2165 2166 2167 2168 2169 2170 2171 2172 2173 2174 2175 2176 2177 2178 2179 2180 2181 2182 2183 2184 2185 2186 2187 2188 2189 2190 2191 2192 2193 2194 2195 2196 2197 2198 2199 2200 2201 2202 2203 2204 2205 2206 2207 2208 2209 2210 2211 2212 2213 2214 2215 2216 2217 2218 2219 2220 2221 2222 2223 2224 2225 2226 2227 2228 2229 2230 2231 2232 2233 2234 2235 2236 2237 2238 2239 2240 2241 2242 2243 2244 2245 2246 2247 2248 2249 2250 2251 2252 2253 2254 2255 2256 2257 2258 2259 2260 2261 2262 2263 2264 2265 2266 2267 2268 2269 2270 2271 2272 2273 2274 2275 2276 2277 2278 2279 2280 2281 2282 2283 2284 2285 2286 2287 2288 2289 2290 2291 2292 2293 2294 2295 2296 2297 2298 2299 2300 2301 2302 2303 2304 2305 2306 2307 2308 2309 2310 2311 2312 2313 2314 2315 2316 2317 2318 2319 2320 2321 2322 2323 2324 2325 2326 2327 2328 2329 2330 2331 2332 2333 2334 2335 2336 2337 2338 2339 2340 2341 2342 2343 2344 2345 2346 2347 2348 2349 2350 2351 2352 2353 2354 2355 2356 2357 2358 2359 2360 2361 2362 2363 2364 2365 2366 2367 2368 2369 2370 2371 2372 2373 2374 2375 2376 2377 2378 2379 2380 2381 2382 2383 2384 2385 2386 2387 2388 2389 2390 2391 2392 2393 2394 2395 2396 2397 2398 2399 2400 2401 2402 2403 2404 2405 2406 2407 2408 2409 2410 2411 2412 2413 2414 2415 2416 2417 2418 2419 2420 2421 2422 2423 2424 2425 2426 2427 2428 2429 2430 2431 2432 2433 2434 2435 2436 2437 2438 2439 2440 2441 2442 2443 2444 2445 2446 2447 2448 2449 2450 2451 2452 2453 2454 2455 2456 2457 2458 2459 2460 2461 2462 2463 2464 2465 2466 2467 2468 2469 2470 2471 2472 2473 2474 2475 2476 2477 2478 2479 2480 2481 2482 2483 2484 2485 2486 2487 2488 2489 2490 2491 2492 2493 2494 2495 2496 2497 2498 2499 2500 2501 2502 2503 2504 2505 2506 2507 2508 2509 2510 2511 2512 2513 2514 2515 2516 2517 2518 2519 2520 2521 2522 2523 2524 2525 2526 2527 2528 2529 2530 2531 2532 2533 2534 2535 2536 2537 2538 2539 2540 2541 2542 2543 2544 2545 2546 2547 2548 2549 2550 2551 2552 2553 2554 2555 2556 2557 2558 2559 2560 2561 2562 2563 2564 2565 2566 2567 2568 2569 2570 2571 2572 2573 2574 2575 2576 2577 2578 2579 2580 2581 2582 2583 2584 2585 2586 2587 2588 2589 2590 2591 2592 2593 2594 2595 2596 2597 2598 2599 2600 2601 2602 2603 2604 2605 2606 2607 2608 2609 2610 2611 2612 2613 2614 2615 2616 2617 2618 2619 2620 2621 2622 2623 2624 2625 2626 2627 2628 2629 2630 2631 2632 2633 2634 2635 2636 2637 2638 2639 2640 2641 2642 2643 2644 2645 2646 2647 2648 2649 2650 2651 2652 2653 2654 2655 2656 2657 2658 2659 2660 2661 2662 2663 2664 2665 2666 2667 2668 2669 2670 2671 2672 2673 2674 2675 2676 2677 2678 2679 2680 2681 2682 2683 2684 2685 2686 2687 2688 2689 2690 2691 2692 2693 2694 2695 2696 2697 2698 2699 2700 2701 2702 2703 2704 2705 2706 2707 2708 2709 2710 2711 2712 2713 2714 2715 2716 2717 2718 2719 2720 2721 2722 2723 2724 2725 2726 2727 2728 2729 2730 2731 2732 2733 2734 2735 2736 2737 2738 2739 2740 2741 2742 2743 2744 2745 2746 2747 2748 2749 2750 2751 2752 2753 2754 2755 2756 2757 2758 2759 2760 2761 2762 2763 2764 2765 2766 2767 2768 2769 2770 2771 2772 2773 2774 2775 2776 2777 2778 2779 2780 2781 2782 2783 2784 2785 2786 2787 2788 2789 2790 2791 2792 2793 2794 2795 2796 2797 2798 2799 2800 2801 2802 2803 2804 2805 2806 2807 2808 2809 2810 2811 2812 2813 2814 2815 2816 2817 2818 2819 2820 2821 2822 2823 2824 2825 2826 2827 2828 2829 2830 2831 2832 2833 2834 2835 2836 2837 2838 2839 2840 2841 2842 2843 2844 2845 2846 2847 2848 2849 2850 2851 2852 2853 2854 2855 2856 2857 2858 2859 2860 2861 2862 2863 2864 2865 2866 2867 2868 2869 2870 2871 2872 2873 2874 2875 2876 2877 2878 2879 2880 2881 2882 2883 2884 2885 2886 2887 2888 2889 2890 2891 2892 2893 2894 2895 2896 2897 2898 2899 2900 2901 2902 2903 2904 2905 2906 2907 2908 2909 2910 2911 2912 2913 2914 2915 2916 2917 2918 2919 2920 2921 2922 2923 2924 2925 2926 2927 2928 2929 2930 2931 2932 2933 2934 2935 2936 2937 2938 2939 2940 2941 2942 2943 2944 2945 2946 2947 2948 2949 2950 2951 2952 2953 2954 2955 2956 2957 2958 2959 2960 2961 2962 2963 2964 2965 2966 2967 2968 2969 2970 2971 2972 2973 2974 2975 2976 2977 2978 2979 2980 2981 2982 2983 2984 2985 2986 2987 2988 2989 2990 2991 2992 2993 2994 2995 2996 2997 2998 2999 3000 3001 3002 3003 3004 3005 3006 3007 3008 3009 3010 3011 3012 3013 3014 3015 3016 3017 3018 3019 3020 3021 3022 3023 3024 3025 3026 3027 3028 3029 3030 3031 3032 3033 3034 3035 3036 3037 3038 3039 3040 3041 3042 3043 3044 3045 3046 3047 3048 3049 3050 3051 3052 3053 3054 3055 3056 3057 3058 3059 3060 3061 3062 3063 3064 3065 3066 3067 3068 3069 3070 3071 3072 3073 3074 3075 3076 3077 3078 3079 3080 3081 3082 3083 3084 3085 3086 3087 3088 3089 3090 3091 3092 3093 3094 3095 3096 3097 3098 3099 3100 3101 3102 3103 3104 3105 3106 3107 3108 3109 3110 3111 3112 3113 3114 3115 3116 3117 3118 3119 3120 3121 3122 3123 3124 3125 3126 3127 3128 3129 3130 3131 3132 3133 3134 3135 3136 3137 3138 3139 3140 3141 
</DataArray>
<DataArray type="UInt32" Name="offsets" format="ascii">
3 6 9 12 15 18 21 24 27 30 33 36 39 42 45 48 51 54 57 60 63 66 69 72 75 78 81 84 87 90 93 96 99 102 105 108 111 114 117 120 123 126 129 132 135 138 141 144 147 150 153 156 159 162 165 168 171 174 177 180 183 186 189 192 195 198 201 204 207 210 213 216 219 222 225 228 231 234 237 240 243 246 249 252 255 258 261 264 267 270 273 276 279 282 285 288 291 294 297 300 303 306 309 312 315 318 321 324 327 330 333 336 339 342 345 348 351 354 357 360 363 366 369 372 375 378 381 384 387 390 393 396 399 402 405 408 411 414 417 420 423 426 429 432 435 438 441 444 447 450 453 456 459 462 465 468 471 474 477 480 483 486 489 492 495 498 501 504 507 510 513 516 519 522 525 528 531 534 537 540 543 546 549 552 555 558 561 564 567 570 573 576 579 582 585 588 591 594 597 600 603 606 609 612 615 618 621 624 627 630 633 636 639 642 645 648 651 654 657 660 663 666 669 672 675 678 681 684 687 690 693 696 699 702 705 708 711 714 717 720 723 726 729 732 735 738 741 744 747 750 753 756 759 762 765 768 771 774 777 780 783 786 789 792 795 798 801 804 807 810 813 816 819 822 825 828 831 834 837 840 843 846 849 852 855 858 861 864 867 870 873 876 879 882 885 888 891 894 897 900 903 906 909 912 915 918 921 924 927 930 933 936 939 942 945 948 951 954 957 960 963 966 969 972 975 978 981 984 987 990 993 996 999 1002 1005 1008 1011 1014 1017 1020 1023 1026 1029 1032 1035 1038 1041 1044 1047 1050 1053 1056 1059 1062 1065 1068 1071 1074 1077 1080 1083 1086 1089 1092 1095 1098 1101 1104 1107 1110 1113 1116 1119 1122 1125 1128 1131 1134 1137 1140 1143 1146 1149 1152 1155 1158 1161 1164 1167 1170 1173 1176 1179 1182 1185 1188 1191 1194 1197 1200 1203 1206 1209 1212 1215 1218 1221 1224 1227 1230 1233 1236 1239 1242 1245 1248 1251 1254 1257 1260 1263 1266 1269 1272 1275 1278 1281 1284 1287 1290 1293 1296 1299 1302 1305 1308 1311 1314 1317 1320 1323 1326 1329 1332 1335 1338 1341 1344 1347 1350 1353 1356 1359 1362 1365 1368 1371 1374 1377 1380 1383 1386 1389 1392 1395 1398 1401 1404 1407 1410 1413 1416 1419 1422 1425 1428 1431 1434 1437 1440 1443 1446 1449 1452 1455 1458 1461 1464 1467 1470 1473 1476 1479 1482 1485 1488 1491 1494 1497 1500 1503 1506 1509 1512 1515 1518 1521 1524 1527 1530 1533 1536 1539 1542 1545 1548 1551 1554 1557 1560 1563 1566 1569 1572 1575 1578 1581 1584 1587 1590 1593 1596 1599 1602 1605 1608 1611 1614 1616 1619 1622 1624 1627 1630 1632 1635 1638 1641 1644 1647 1650 1653 1656 1659 1662 1665 1668 1671 1673 1676 1679 1682 1685 1688 1690 1693 1696 1699 1702 1705 1708 1711 1714 1717 1720 1723 1726 1729 1732 1735 1738 1741 1744 1747 1750 1753 1756 1759 1762 1765 1768 1771 1774 1777 1780 1783 1786 1789 1792 1795 1798 1801 1804 1807 1810 1813 1816 1819 1822 1825 1828 1831 1834 1837 1840 1843 1846 1849 1852 1855 1858 1861 1864 1867 1870 1873 1876 1879 1882 1885 1888 1891 1894 1897 1900 1903 1906 1909 1912 1915 1918 1921 1924 1927 1930 1933 1936 1939 1942 1945 1948 1951 1954 1957 1960 1963 1966 1969 1972 1975 1978 1981 1984 1987 1990 1993 1996 1999 2002 2005 2008 2011 2014 2017 2020 2023 2026 2029 2032 2035 2038 2041 2044 2047 2050 2053 2056 2059 2062 2065 2068 2071 2074 2077 2080 2083 2086 2089 2092 2095 2098 2101 2104 2107 2110 2113 2116 2119 2122 2125 2128 2131 2134 2137 2140 2143 2146 2149 2152 2155 2158 2161 2164 2167 2170 2173 2176 2179 2182 2185 2188 2191 2194 2196 2199 2202 2205 2207 2210 2213 2215 2218 2221 2224 2227 2230 2233 2236 2239 2242 2245 2248 2250 2253 2256 2259 2262 2264 2267 2270 2273 2276 2279 2282 2285 2288 2291 2294 2297 2300 2303 2306 2309 2312 2315 2318 2321 2324 2327 2330 2333 2336 2339 2342 2345 2348 2351 2354 2357 2360 2363 2366 2369 2372 2375 2378 2381 2384 2387 2390 2393 2396 2399 2402 2405 2408 2411 2414 2417 2420 2423 2426 2429 2432 2435 2438 2440 2443 2446 2449 2452 2455 2458 2461 2464 2467 2470 2473 2476 2479 2482 2484 2487 2490 2492 2495 2497 2500 2503 2506 2509 2512 2515 2518 2521 2524 2527 2530 2533 2536 2538 2541 2544 2547 2550 2553 2556 2559 2562 2565 2568 2571 2574 2577 2580 2583 2586 2589 2592 2595 2598 2601 2604 2607 2610 2613 2616 2619 2622 2625 2628 2631 2634 2637 2640 2643 2646 2649 2652 2655 2658 2661 2664 2667 2670 2673 2676 2679 2682 2685 2688 2691 2694 2697 2700 2703 2706 2709 2712 2715 2718 2721 2724 2727 2730 2733 2736 2739 2742 2745 2748 2751 2754 2757 2760 2763 2766 2769 2772 2775 2778 2781 2784 2787 2790 2793 2796 2799 2802 2805 2808 2811 2814 2817 2820 2823 2826 2829 2832 2835 2838 2841 2844 2847 2850 2853 2856 2859 2862 2865 2868 2871 2874 2877 2880 2883 2886 2889 2892 2895 2898 2901 2904 2907 2910 2913 2916 2919 2922 2925 2928 2931 2934 2937 2940 2943 2946 2948 2951 2954 2956 2959 2961 2964 2967 2970 2973 2976 2979 2982 2985 2988 2991 2994 2997 3000 3003 3006 3009 3012 3015 3018 3021 3024 3027 3030 3033 3036 3039 3042 3045 3048 3051 3054 3057 3060 3063 3066 3069 3072 3075 3078 3081 3084 3087 3090 3093 3096 3099 3102 3104 3107 3110 3113 3116 3119 3121 3124 3127 3130 3133 3136 3139 3142 
</DataArray>
<DataArray type="UInt32" Name="types" format="ascii">
5 5 5 5 5 5 5 5 5 5 5 5 5 5 5 5 5 5 5 5 5 5 5 5 5 5 5 5 5 5 5 5 5 5 5 5 5 5 5 5 5 5 5 5 5 5 5 5 5 5 5 5 5 5 5 5 5 5 5 5 5 5 5 5 5 5 5 5 5 5 5 5 5 5 5 5 5 5 5 5 5 5 5 5 5 5 5 5 5 5 5 5 5 5 5 5 5 5 5 5 5 5 5 5 5 5 5 5 5 5 5 5 5 5 5 5 5 5 5 5 5 5 5 5 5 5 5 5 5 5 5 5 5 5 5 5 5 5 5 5 5 5 5 5 5 5 5 5 5 5 5 5 5 5 5 5 5 5 5 5 5 5 5 5 5 5 5 5 5 5 5 5 5 5 5 5 5 5 5 5 5 5 5 5 5 5 5 5 5 5 5 5 5 5 5 5 5 5 5 5 5 5 5 5 5 5 5 5 5 5 5 5 5 5 5 5 5 5 5 5 5 5 5 5 5 5 5 5 5 5 5 5 5 5 5 5 5 5 5 5 5 5 5 5 5 5 5 5 5 5 5 5 5 5 5 5 5 5 5 5 5 5 5 5 5 5 5 5 5 5 5 5 5 5 5 5 5 5 5 5 5 5 5 5 5 5 5 5 5 5 5 5 5 5 5 5 5 5 5 5 5 5 5 5 5 5 5 5 5 5 5 5 5 5 5 5 5 5 5 5 5 5 5 5 5 5 5 5 5 5 5 5 5 5 5 5 5 5 5 5 5 5 5 5 5 5 5 5 5 5 5 5 5 5 5 5 5 5 5 5 5 5 5 5 5 5 5 5 5 5 5 5 5 5 5 5 5 5 5 5 5 5 5 5 5 5 5 5 5 5 5 5 5 5 5 5 5 5 5 5 5 5 5 5 5 5 5 5 5 5 5 5 5 5 5 5 5 5 5 5 5 5 5 5 5 5 5 5 5 5 5 5 5 5 5 5 5 5 5 5 5 5 5 5 5 5 5 5 5 5 5 5 5 5 5 5 5 5 5 5 5 5 5 5 5 5 5 5 5 5 5 5 5 5 5 5 5 5 5 5 5 5 5 5 5 5 5 5 5 5 5 5 5 5 5 5 5 5 5 5 5 5 5 5 5 5 5 5 5 5 5 5 5 5 5 5 5 5 5 5 5 5 5 5 5 5 5 5 5 5 5 5 5 5 5 5 5 5 3 5 5 3 5 5 3 5 5 5 5 5 5 5 5 5 5 5 5 5 3 5 5 5 5 5 3 5 5 5 5 5 5 5 5 5 5 5 5 5 5 5 5 5 5 5 5 5 5 5 5 5 5 5 5 5 5 5 5 5 5 5 5 5 5 5 5 5 5 5 5 5 5 5 5 5 5 5 5 5 5 5 5 5 5 5 5 5 5 5 5 5 5 5 5 5 5 5 5 5 5 5 5 5 5 5 5 5 5 5 5 5 5 5 5 5 5 5 5 5 5 5 5 5 5 5 5 5 5 5 5 5 5 5 5 5 5 5 5 5 5 5 5 5 5 5 5 5 5 5 5 5 5 5 5 5 5 5 5 5 5 5 5 5 5 5 5 5 5 5 5 5 5 5 5 5 5 5 5 5 5 5 5 5 5 5 5 5 5 5 5 5 5 5 5 3 5 5 5 3 5 5 3 5 5 5 5 5 5 5 5 5 5 5 3 5 5 5 5 3 5 5 5 5 5 5 5 5 5 5 5 5 5 5 5 5 5 5 5 5 5 5 5 5 5 5 5 5 5 5 5 5 5 5 5 5 5 5 5 5 5 5 5 5 5 5 5 5 5 5 5 5 5 5 5 5 5 5 3 5 5 5 5 5 5 5 5 5 5 5 5 5 5 3 5 5 3 5 3 5 5 5 5 5 5 5 5 5 5 5 5 5 3 5 5 5 5 5 5 5 5 5 5 5 5 5 5 5 5 5 5 5 5 5 5 5 5 5 5 5 5 5 5 5 5 5 5 5 5 5 5 5 5 5 5 5 5 5 5 5 5 5 5 5 5 5 5 5 5 5 5 5 5 5 5 5 5 5 5 5 5 5 5 5 5 5 5 5 5 5 5 5 5 5 5 5 5 5 5 5 5 5 5 5 5 5 5 5 5 5 5 5 5 5 5 5 5 5 5 5 5 5 5 5 5 5 5 5 5 5 5 5 5 5 5 5 5 5 5 5 5 5 5 5 5 5 5 5 5 3 5 5 3 5 3 5 5 5 5 5 5 5 5 5 5 5 5 5 5 5 5 5 5 5 5 5 5 5 5 5 5 5 5 5 5 5 5 5 5 5 5 5 5 5 5 5 5 5 5 5 5 5 3 5 5 5 5 5 3 5 5 5 5 5 5 5 
</DataArray>
</Cells>
<PointData Scalars="" Vectors="displacement," Tensors="">
<DataArray type="Float64" Name="displacement" NumberOfComponents="3" format="ascii">
-5.0411336432848579e-07 1.0626378926777894e-07 0 -9.8359344062454342e-10 -4.0546301709070138e-10 0 -1.118886131458075e-06 -2.0381201412741345e-08 0 -5.0411336432848579e-07 1.0626378926777894e-07 0 -9.8359344062454342e-10 -4.0546301709070138e-10 0 -8.8472270813500746e-10 2.8144982451022625e-10 0 -5.0411336432848579e-07 1.0626378926777894e-07 0 -1.118886131458075e-06 -2.0381201412741345e-08 0 -1.124478680470132e-06 4.3083054263651043e-07 0 -5.0411336432848579e-07 1.0626378926777894e-07 0 -1.124478680470132e-06 4.3083054263651043e-07 0 -8.8472270813500746e-10 2.8144982451022625e-10 0 -8.8472270813500746e-10 2.8144982451022625e-10 0 -8.7133612452511594e-10 1.6255033431882508e-10 0 -7.1352822422320475e-07 6.3712673345363971e-07 0 -8.7133612452511594e-10 1.6255033431882508e-10 0 -7.1352822422320475e-07 6.3712673345363971e-07 0 -4.550526021901961e-10 5.0751577857568281e-10 0 -1.124478680470132e-06 4.3083054263651043e-07 0 -7.1352822422320475e-07 6.3712673345363971e-07 0 -1.5592180903735811e-06 9.4500205608296455e-07 0 -1.124478680470132e-06 4.3083054263651043e-07 0 -8.8472270813500746e-10 2.8144982451022625e-10 0 -7.1352822422320475e-07 6.3712673345363971e-07 0 -7.1352822422320475e-07 6.3712673345363971e-07 0 -1.5592180903735811e-06 9.4500205608296455e-07 0 -8.1863238233112956e-07 1.0575174447092567e-06 0 -1.5592180903735811e-06 9.4500205608296455e-07 0 -8.1863238233112956e-07 1.0575174447092567e-06 0 -1.5800222972157296e-06 1.3271999214613062e-06 0 -1.5592180903735811e-06 9.4500205608296455e-07 0 -2.4030796248080878e-06 1.2000972299697771e-06 0 -1.5800222972157296e-06 1.3271999214613062e-06 0 -2.4030796248080878e-06 1.2000972299697771e-06 0 -1.5800222972157296e-06 1.3271999214613062e-06 0 -1.9020378705044682e-06 1.538418159346581e-06 0 -2.4030796248080878e-06 1.2000972299697771e-06 0 -2.4149439486786548e-06 6.9433309196721225e-07 0 -3.4431819400472073e-06 9.355395701196118e-07 0 -1.5592180903735811e-06 9.4500205608296455e-07 0 -2.4030796248080878e-06 1.2000972299697771e-06 0 -2.4149439486786548e-06 6.9433309196721225e-07 0 -2.4149439486786548e-06 6.9433309196721225e-07 0 -2.4952598395247951e-06 2.3584279222354885e-07 0 -4.1753740119725714e-06 3.1084981293392975e-07 0 -1.118886131458075e-06 -2.0381201412741345e-08 0 -1.124478680470132e-06 4.3083054263651043e-07 0 -2.4952598395247951e-06 2.3584279222354885e-07 0 -1.124478680470132e-06 4.3083054263651043e-07 0 -2.4149439486786548e-06 6.9433309196721225e-07 0 -2.4952598395247951e-06 2.3584279222354885e-07 0 -1.124478680470132e-06 4.3083054263651043e-07 0 -1.5592180903735811e-06 9.4500205608296455e-07 0 -2.4149439486786548e-06 6.9433309196721225e-07 0 -1.0666522884411388e-07 8.842176001655935e-07 0 -2.796611397052556e-10 3.5396506753277328e-10 0 -6.0039706279391875e-12 4.3712421094275044e-10 0 -1.0666522884411388e-07 8.842176001655935e-07 0 -2.796611397052556e-10 3.5396506753277328e-10 0 -2.8394260612981787e-07 7.4241527935741056e-07 0 -1.0666522884411388e-07 8.842176001655935e-07 0 -2.8394260612981787e-07 7.4241527935741056e-07 0 -4.9458091155346043e-07 1.366801512508066e-06 0 -2.8394260612981787e-07 7.4241527935741056e-07 0 -4.550526021901961e-10 5.0751577857568281e-10 0 -8.1863238233112956e-07 1.0575174447092567e-06 0 -7.1352822422320475e-07 6.3712673345363971e-07 0 -4.550526021901961e-10 5.0751577857568281e-10 0 -8.1863238233112956e-07 1.0575174447092567e-06 0 -2.8394260612981787e-07 7.4241527935741056e-07 0 -8.1863238233112956e-07 1.0575174447092567e-06 0 -4.9458091155346043e-07 1.366801512508066e-06 0 -2.796611397052556e-10 3.5396506753277328e-10 0 -2.8394260612981787e-07 7.4241527935741056e-07 0 -4.550526021901961e-10 5.0751577857568281e-10 0 -8.1863238233112956e-07 1.0575174447092567e-06 0 -1.5800222972157296e-06 1.3271999214613062e-06 0 -1.1202169567122003e-06 1.4860228902974647e-06 0 -1.5800222972157296e-06 1.3271999214613062e-06 0 -1.1202169567122003e-06 1.4860228902974647e-06 0 -1.9020378705044682e-06 1.538418159346581e-06 0 -8.1863238233112956e-07 1.0575174447092567e-06 0 -1.1202169567122003e-06 1.4860228902974647e-06 0 -4.9458091155346043e-07 1.366801512508066e-06 0 -4.9458091155346043e-07 1.366801512508066e-06 0 -9.4114301835243196e-09 1.5077716916468993e-06 0 -7.409195242250401e-07 1.7068031118192158e-06 0 -1.1202169567122003e-06 1.4860228902974647e-06 0 -4.9458091155346043e-07 1.366801512508066e-06 0 -7.409195242250401e-07 1.7068031118192158e-06 0 -1.0666522884411388e-07 8.842176001655935e-07 0 -4.9458091155346043e-07 1.366801512508066e-06 0 -9.4114301835243196e-09 1.5077716916468993e-06 0 -1.0666522884411388e-07 8.842176001655935e-07 0 -9.4114301835243196e-09 1.5077716916468993e-06 0 1.4614844149084533e-07 9.5605598951872611e-07 0 -9.4114301835243196e-09 1.5077716916468993e-06 0 -4.0907738992810011e-08 1.7028164925331896e-06 0 -7.409195242250401e-07 1.7068031118192158e-06 0 -2.1653605904585228e-07 1.66485410271645e-06 0 -4.0907738992810011e-08 1.7028164925331896e-06 0 -7.409195242250401e-07 1.7068031118192158e-06 0 -2.1653605904585228e-07 1.66485410271645e-06 0 -7.409195242250401e-07 1.7068031118192158e-06 0 -1.3770771493317389e-06 1.6001845695542606e-06 0 -1.3770771493317389e-06 1.6001845695542606e-06 0 -1.9020378705044682e-06 1.538418159346581e-06 0 -2.6388759388443995e-06 1.3836592084537789e-06 0 -1.1202169567122003e-06 1.4860228902974647e-06 0 -7.409195242250401e-07 1.7068031118192158e-06 0 -1.9020378705044682e-06 1.538418159346581e-06 0 -7.409195242250401e-07 1.7068031118192158e-06 0 -1.3770771493317389e-06 1.6001845695542606e-06 0 -1.9020378705044682e-06 1.538418159346581e-06 0 -1.9020378705044682e-06 1.538418159346581e-06 0 -2.6388759388443995e-06 1.3836592084537789e-06 0 -3.0661558421325158e-06 1.2538054388133983e-06 0 -2.6388759388443995e-06 1.3836592084537789e-06 0 -3.7375793324720964e-06 8.9236952203190159e-07 0 -1.9030017995946217e-06 1.2609477439074422e-06 0 -3.7375793324720964e-06 8.9236952203190159e-07 0 -1.9030017995946217e-06 1.2609477439074422e-06 0 -3.0620463371343703e-06 6.0104760717236766e-07 0 -1.9030017995946217e-06 1.2609477439074422e-06 0 -3.0620463371343703e-06 6.0104760717236766e-07 0 -1.764441151007677e-06 5.7034172674253558e-07 0 -1.3770771493317389e-06 1.6001845695542606e-06 0 -2.6388759388443995e-06 1.3836592084537789e-06 0 -1.9030017995946217e-06 1.2609477439074422e-06 0 -2.1653605904585228e-07 1.66485410271645e-06 0 -1.3770771493317389e-06 1.6001845695542606e-06 0 -6.1944318689848534e-07 1.2938000950224019e-06 0 -1.3770771493317389e-06 1.6001845695542606e-06 0 -1.9030017995946217e-06 1.2609477439074422e-06 0 -6.1944318689848534e-07 1.2938000950224019e-06 0 -1.9030017995946217e-06 1.2609477439074422e-06 0 -6.1944318689848534e-07 1.2938000950224019e-06 0 -1.764441151007677e-06 5.7034172674253558e-07 0 -6.1944318689848534e-07 1.2938000950224019e-06 0 5.6546180878362256e-07 8.6751714744460326e-07 0 6.7544772234649855e-07 1.4345634213859226e-06 0 -2.1653605904585228e-07 1.66485410271645e-06 0 -6.1944318689848534e-07 1.2938000950224019e-06 0 6.7544772234649855e-07 1.4345634213859226e-06 0 -4.9358531387597459e-06 5.7160357397229991e-07 0 -4.1753740119725714e-06 3.1084981293392975e-07 0 -3.4431819400472073e-06 9.355395701196118e-07 0 -4.9358531387597459e-06 5.7160357397229991e-07 0 -3.4431819400472073e-06 9.355395701196118e-07 0 -4.3740021219151695e-06 9.2849484549065709e-07 0 -4.9358531387597459e-06 5.7160357397229991e-07 0 -4.1753740119725714e-06 3.1084981293392975e-07 0 -6.1631569095285545e-06 -4.6824341114892676e-08 0 -2.4149439486786548e-06 6.9433309196721225e-07 0 -4.1753740119725714e-06 3.1084981293392975e-07 0 -3.4431819400472073e-06 9.355395701196118e-07 0 -2.4030796248080878e-06 1.2000972299697771e-06 0 -3.4431819400472073e-06 9.355395701196118e-07 0 -3.0661558421325158e-06 1.2538054388133983e-06 0 -2.4030796248080878e-06 1.2000972299697771e-06 0 -1.9020378705044682e-06 1.538418159346581e-06 0 -3.0661558421325158e-06 1.2538054388133983e-06 0 -2.6388759388443995e-06 1.3836592084537789e-06 0 -3.0661558421325158e-06 1.2538054388133983e-06 0 -4.3740021219151695e-06 9.2849484549065709e-07 0 -3.4431819400472073e-06 9.355395701196118e-07 0 -3.0661558421325158e-06 1.2538054388133983e-06 0 -4.3740021219151695e-06 9.2849484549065709e-07 0 -2.6388759388443995e-06 1.3836592084537789e-06 0 -3.7375793324720964e-06 8.9236952203190159e-07 0 -4.3740021219151695e-06 9.2849484549065709e-07 0 -3.7375793324720964e-06 8.9236952203190159e-07 0 -4.3740021219151695e-06 9.2849484549065709e-07 0 -5.4138496844896036e-06 3.8491340230636226e-07 0 -3.7375793324720964e-06 8.9236952203190159e-07 0 -5.4138496844896036e-06 3.8491340230636226e-07 0 -5.0799088852946567e-06 -3.5937870248251525e-08 0 -4.3740021219151695e-06 9.2849484549065709e-07 0 -5.4138496844896036e-06 3.8491340230636226e-07 0 -6.2278133627692684e-06 1.9023964608996342e-07 0 -5.4138496844896036e-06 3.8491340230636226e-07 0 -6.2278133627692684e-06 1.9023964608996342e-07 0 -7.5200389249252515e-06 -6.0814317517147724e-07 0 -4.9358531387597459e-06 5.7160357397229991e-07 0 -4.3740021219151695e-06 9.2849484549065709e-07 0 -6.2278133627692684e-06 1.9023964608996342e-07 0 -4.9358531387597459e-06 5.7160357397229991e-07 0 -6.2278133627692684e-06 1.9023964608996342e-07 0 -6.1631569095285545e-06 -4.6824341114892676e-08 0 -6.2278133627692684e-06 1.9023964608996342e-07 0 -6.1631569095285545e-06 -4.6824341114892676e-08 0 -8.4230085079249914e-06 -8.7050926238065195e-07 0 -8.4230085079249914e-06 -8.7050926238065195e-07 0 -7.5200389249252515e-06 -6.0814317517147724e-07 0 -1.0831285080786035e-05 -2.2485115248194993e-06 0 -6.2278133627692684e-06 1.9023964608996342e-07 0 -8.4230085079249914e-06 -8.7050926238065195e-07 0 -7.5200389249252515e-06 -6.0814317517147724e-07 0 -7.5200389249252515e-06 -6.0814317517147724e-07 0 -1.0831285080786035e-05 -2.2485115248194993e-06 0 -1.0115149322251166e-05 -2.3915340027184561e-06 0 -1.0831285080786035e-05 -2.2485115248194993e-06 0 -1.0115149322251166e-05 -2.3915340027184561e-06 0 -1.3636313880940766e-05 -4.3044300478046466e-06 0 -1.0115149322251166e-05 -2.3915340027184561e-06 0 -1.2306347371800457e-05 -4.2347052828871262e-06 0 -8.9207494017040402e-06 -3.0837509118825528e-06 0 -1.2306347371800457e-05 -4.2347052828871262e-06 0 -8.9207494017040402e-06 -3.0837509118825528e-06 0 -1.2438560205688535e-05 -5.9167878389559851e-06 0 -1.0115149322251166e-05 -2.3915340027184561e-06 0 -1.2306347371800457e-05 -4.2347052828871262e-06 0 -1.3636313880940766e-05 -4.3044300478046466e-06 0 -1.2306347371800457e-05 -4.2347052828871262e-06 0 -1.3636313880940766e-05 -4.3044300478046466e-06 0 -1.6758987062696048e-05 -7.1487358606070455e-06 0 -8.9207494017040402e-06 -3.0837509118825528e-06 0 -5.6093354781360148e-06 -3.016077010917964e-06 0 -8.3786249619898215e-06 -5.3167242472773294e-06 0 -8.9207494017040402e-06 -3.0837509118825528e-06 0 -5.8989629093564245e-06 -1.4331976287600426e-06 0 -5.6093354781360148e-06 -3.016077010917964e-06 0 -1.0115149322251166e-05 -2.3915340027184561e-06 0 -8.9207494017040402e-06 -3.0837509118825528e-06 0 -7.5123657682841615e-06 -1.3540881055506193e-06 0 -8.9207494017040402e-06 -3.0837509118825528e-06 0 -5.8989629093564245e-06 -1.4331976287600426e-06 0 -7.5123657682841615e-06 -1.3540881055506193e-06 0 -5.8989629093564245e-06 -1.4331976287600426e-06 0 -7.5123657682841615e-06 -1.3540881055506193e-06 0 -5.0799088852946567e-06 -3.5937870248251525e-08 0 -7.5200389249252515e-06 -6.0814317517147724e-07 0 -1.0115149322251166e-05 -2.3915340027184561e-06 0 -7.5123657682841615e-06 -1.3540881055506193e-06 0 -7.5200389249252515e-06 -6.0814317517147724e-07 0 -7.5123657682841615e-06 -1.3540881055506193e-06 0 -5.0799088852946567e-06 -3.5937870248251525e-08 0 -5.4138496844896036e-06 3.8491340230636226e-07 0 -7.5200389249252515e-06 -6.0814317517147724e-07 0 -5.0799088852946567e-06 -3.5937870248251525e-08 0 -3.7375793324720964e-06 8.9236952203190159e-07 0 -5.0799088852946567e-06 -3.5937870248251525e-08 0 -3.0620463371343703e-06 6.0104760717236766e-07 0 -5.0799088852946567e-06 -3.5937870248251525e-08 0 -3.0620463371343703e-06 6.0104760717236766e-07 0 -3.5310605632743469e-06 -2.786759856128592e-07 0 -3.0620463371343703e-06 6.0104760717236766e-07 0 -3.5310605632743469e-06 -2.786759856128592e-07 0 -1.764441151007677e-06 5.7034172674253558e-07 0 -3.5310605632743469e-06 -2.786759856128592e-07 0 -1.7959822199082781e-06 -6.9022459022542207e-07 0 -3.7862531899006213e-06 -1.4982393187543555e-06 0 -3.5310605632743469e-06 -2.786759856128592e-07 0 -1.764441151007677e-06 5.7034172674253558e-07 0 -1.7959822199082781e-06 -6.9022459022542207e-07 0 -5.8989629093564245e-06 -1.4331976287600426e-06 0 -5.0799088852946567e-06 -3.5937870248251525e-08 0 -3.5310605632743469e-06 -2.786759856128592e-07 0 -6.1944318689848534e-07 1.2938000950224019e-06 0 -3.5158649456619708e-07 2.9226518160827807e-07 0 5.6546180878362256e-07 8.6751714744460326e-07 0 -6.1944318689848534e-07 1.2938000950224019e-06 0 -3.5158649456619708e-07 2.9226518160827807e-07 0 -1.764441151007677e-06 5.7034172674253558e-07 0 -3.5158649456619708e-07 2.9226518160827807e-07 0 -1.764441151007677e-06 5.7034172674253558e-07 0 -1.7959822199082781e-06 -6.9022459022542207e-07 0 -3.5158649456619708e-07 2.9226518160827807e-07 0 1.619877852880602e-07 -1.4244789800303632e-06 0 1.2447401405780416e-06 4.8432599914418523e-08 0 -3.5158649456619708e-07 2.9226518160827807e-07 0 1.619877852880602e-07 -1.4244789800303632e-06 0 -1.7959822199082781e-06 -6.9022459022542207e-07 0 1.619877852880602e-07 -1.4244789800303632e-06 0 -1.7959822199082781e-06 -6.9022459022542207e-07 0 -2.5544311697268131e-06 -2.4376152860163828e-06 0 1.619877852880602e-07 -1.4244789800303632e-06 0 -2.5544311697268131e-06 -2.4376152860163828e-06 0 -6.5845142361123115e-07 -3.7820608010506684e-06 0 1.619877852880602e-07 -1.4244789800303632e-06 0 -6.5845142361123115e-07 -3.7820608010506684e-06 0 1.9881405863168709e-06 -3.0735175113128554e-06 0 -5.8989629093564245e-06 -1.4331976287600426e-06 0 -3.5310605632743469e-06 -2.786759856128592e-07 0 -3.7862531899006213e-06 -1.4982393187543555e-06 0 -5.8989629093564245e-06 -1.4331976287600426e-06 0 -3.7862531899006213e-06 -1.4982393187543555e-06 0 -5.6093354781360148e-06 -3.016077010917964e-06 0 -1.7959822199082781e-06 -6.9022459022542207e-07 0 -3.7862531899006213e-06 -1.4982393187543555e-06 0 -2.5544311697268131e-06 -2.4376152860163828e-06 0 -2.5544311697268131e-06 -2.4376152860163828e-06 0 -5.6093354781360148e-06 -3.016077010917964e-06 0 -4.2557950703622922e-06 -4.7317881661595927e-06 0 -3.7862531899006213e-06 -1.4982393187543555e-06 0 -2.5544311697268131e-06 -2.4376152860163828e-06 0 -5.6093354781360148e-06 -3.016077010917964e-06 0 -5.6093354781360148e-06 -3.016077010917964e-06 0 -4.2557950703622922e-06 -4.7317881661595927e-06 0 -8.3786249619898215e-06 -5.3167242472773294e-06 0 -4.2557950703622922e-06 -4.7317881661595927e-06 0 -1.9371770847923025e-06 -6.4561822293197896e-06 0 -6.9362127754713087e-06 -8.2191619349539092e-06 0 -4.2557950703622922e-06 -4.7317881661595927e-06 0 -6.9362127754713087e-06 -8.2191619349539092e-06 0 -8.3786249619898215e-06 -5.3167242472773294e-06 0 -6.5845142361123115e-07 -3.7820608010506684e-06 0 1.5633737098071207e-06 -5.5723061056407055e-06 0 1.9881405863168709e-06 -3.0735175113128554e-06 0 -2.5544311697268131e-06 -2.4376152860163828e-06 0 -4.2557950703622922e-06 -4.7317881661595927e-06 0 -6.5845142361123115e-07 -3.7820608010506684e-06 0 -4.2557950703622922e-06 -4.7317881661595927e-06 0 -6.5845142361123115e-07 -3.7820608010506684e-06 0 -1.9371770847923025e-06 -6.4561822293197896e-06 0 -6.5845142361123115e-07 -3.7820608010506684e-06 0 -1.9371770847923025e-06 -6.4561822293197896e-06 0 1.5633737098071207e-06 -5.5723061056407055e-06 0 -1.9371770847923025e-06 -6.4561822293197896e-06 0 3.8962854221342147e-07 -8.8050122207677526e-06 0 1.5633737098071207e-06 -5.5723061056407055e-06 0 -1.9371770847923025e-06 -6.4561822293197896e-06 0 3.8962854221342147e-07 -8.8050122207677526e-06 0 -3.1992022478772941e-06 -1.0371370893544397e-05 0 -3.1992022478772941e-06 -1.0371370893544397e-05 0 -5.3442015562581652e-06 -1.556133515168074e-05 0 -1.4324225799847545e-06 -1.3731361338505073e-05 0 3.8962854221342147e-07 -8.8050122207677526e-06 0 -3.1992022478772941e-06 -1.0371370893544397e-05 0 -1.4324225799847545e-06 -1.3731361338505073e-05 0 3.8962854221342147e-07 -8.8050122207677526e-06 0 2.4796556993267744e-06 -1.1518942420938941e-05 0 -1.4324225799847545e-06 -1.3731361338505073e-05 0 -6.9362127754713087e-06 -8.2191619349539092e-06 0 -3.1992022478772941e-06 -1.0371370893544397e-05 0 -7.61619717595116e-06 -1.2211629184056464e-05 0 -1.9371770847923025e-06 -6.4561822293197896e-06 0 -6.9362127754713087e-06 -8.2191619349539092e-06 0 -3.1992022478772941e-06 -1.0371370893544397e-05 0 -3.1992022478772941e-06 -1.0371370893544397e-05 0 -7.61619717595116e-06 -1.2211629184056464e-05 0 -5.3442015562581652e-06 -1.556133515168074e-05 0 -6.9362127754713087e-06 -8.2191619349539092e-06 0 -7.61619717595116e-06 -1.2211629184056464e-05 0 -1.2272790762600865e-05 -1.2227292950828639e-05 0 -7.61619717595116e-06 -1.2211629184056464e-05 0 -1.2272790762600865e-05 -1.2227292950828639e-05 0 -1.0364999205198262e-05 -1.5425071281865351e-05 0 -6.9362127754713087e-06 -8.2191619349539092e-06 0 -1.2272790762600865e-05 -1.2227292950828639e-05 0 -1.212654337496654e-05 -8.5631527093333641e-06 0 -1.2272790762600865e-05 -1.2227292950828639e-05 0 -1.6930024947488589e-05 -1.21602893550474e-05 0 -1.212654337496654e-05 -8.5631527093333641e-06 0 -1.2272790762600865e-05 -1.2227292950828639e-05 0 -1.6930024947488589e-05 -1.21602893550474e-05 0 -1.7687796738028964e-05 -1.7908832858482926e-05 0 -1.6930024947488589e-05 -1.21602893550474e-05 0 -2.3428774210742831e-05 -1.6231681675142617e-05 0 -1.7687796738028964e-05 -1.7908832858482926e-05 0 -1.6930024947488589e-05 -1.21602893550474e-05 0 -2.3428774210742831e-05 -1.6231681675142617e-05 0 -2.0068675020352841e-05 -1.1127198425824688e-05 0 -1.6930024947488589e-05 -1.21602893550474e-05 0 -2.0068675020352841e-05 -1.1127198425824688e-05 0 -1.5667406740639214e-05 -8.8586493093509497e-06 0 -1.6930024947488589e-05 -1.21602893550474e-05 0 -1.5667406740639214e-05 -8.8586493093509497e-06 0 -1.212654337496654e-05 -8.5631527093333641e-06 0 -1.5667406740639214e-05 -8.8586493093509497e-06 0 -1.6758987062696048e-05 -7.1487358606070455e-06 0 -1.2438560205688535e-05 -5.9167878389559851e-06 0 -1.5667406740639214e-05 -8.8586493093509497e-06 0 -1.2438560205688535e-05 -5.9167878389559851e-06 0 -1.212654337496654e-05 -8.5631527093333641e-06 0 -2.0068675020352841e-05 -1.1127198425824688e-05 0 -1.5667406740639214e-05 -8.8586493093509497e-06 0 -1.6758987062696048e-05 -7.1487358606070455e-06 0 -1.2306347371800457e-05 -4.2347052828871262e-06 0 -1.6758987062696048e-05 -7.1487358606070455e-06 0 -1.2438560205688535e-05 -5.9167878389559851e-06 0 -8.9207494017040402e-06 -3.0837509118825528e-06 0 -1.2438560205688535e-05 -5.9167878389559851e-06 0 -8.3786249619898215e-06 -5.3167242472773294e-06 0 -6.9362127754713087e-06 -8.2191619349539092e-06 0 -8.3786249619898215e-06 -5.3167242472773294e-06 0 -1.212654337496654e-05 -8.5631527093333641e-06 0 -1.2438560205688535e-05 -5.9167878389559851e-06 0 -8.3786249619898215e-06 -5.3167242472773294e-06 0 -1.212654337496654e-05 -8.5631527093333641e-06 0 5.6128303034999529e-06 -3.4366502781615846e-06 0 5.9576767957106585e-06 -1.6606403172704062e-06 0 6.4221823640766439e-06 -2.7296236227721722e-06 0 5.6128303034999529e-06 -3.4366502781615846e-06 0 5.1645573941710429e-06 -2.1522290393372291e-06 0 5.9576767957106585e-06 -1.6606403172704062e-06 0 5.6128303034999529e-06 -3.4366502781615846e-06 0 5.1645573941710429e-06 -2.1522290393372291e-06 0 4.5918914658634432e-06 -3.4593732693157029e-06 0 5.9576767957106585e-06 -1.6606403172704062e-06 0 6.9179809782043076e-06 -7.5970702011094348e-07 0 6.4221823640766439e-06 -2.7296236227721722e-06 0 6.9179809782043076e-06 -7.5970702011094348e-07 0 7.6647993232322387e-06 -1.1964250339393572e-06 0 7.9044562176127946e-06 5.7258458715818152e-07 0 6.9179809782043076e-06 -7.5970702011094348e-07 0 7.6647993232322387e-06 -1.1964250339393572e-06 0 6.4221823640766439e-06 -2.7296236227721722e-06 0 7.6647993232322387e-06 -1.1964250339393572e-06 0 6.4221823640766439e-06 -2.7296236227721722e-06 0 7.0296516361717047e-06 -3.0646526156155607e-06 0 6.4221823640766439e-06 -2.7296236227721722e-06 0 7.0296516361717047e-06 -3.0646526156155607e-06 0 6.4940661558777103e-06 -4.80037204337421e-06 0 7.6647993232322387e-06 -1.1964250339393572e-06 0 7.0296516361717047e-06 -3.0646526156155607e-06 0 7.6757904725792592e-06 -3.6707791847976068e-06 0 7.0296516361717047e-06 -3.0646526156155607e-06 0 7.6757904725792592e-06 -3.6707791847976068e-06 0 6.4940661558777103e-06 -4.80037204337421e-06 0 6.4940661558777103e-06 -4.80037204337421e-06 0 5.6860180756956308e-06 -5.0936850105710955e-06 0 5.617886680842348e-06 -7.0854944598306696e-06 0 6.4221823640766439e-06 -2.7296236227721722e-06 0 6.4940661558777103e-06 -4.80037204337421e-06 0 5.6860180756956308e-06 -5.0936850105710955e-06 0 5.6128303034999529e-06 -3.4366502781615846e-06 0 6.4221823640766439e-06 -2.7296236227721722e-06 0 5.6860180756956308e-06 -5.0936850105710955e-06 0 5.6128303034999529e-06 -3.4366502781615846e-06 0 5.6860180756956308e-06 -5.0936850105710955e-06 0 5.1077624404399376e-06 -5.1339258403204849e-06 0 5.6860180756956308e-06 -5.0936850105710955e-06 0 4.9526689004367203e-06 -7.2482431619772046e-06 0 5.617886680842348e-06 -7.0854944598306696e-06 0 4.9526689004367203e-06 -7.2482431619772046e-06 0 5.0506313957837706e-06 -7.1286929141411864e-06 0 5.8730906152776202e-06 -9.9683330501472145e-06 0 4.9526689004367203e-06 -7.2482431619772046e-06 0 5.0506313957837706e-06 -7.1286929141411864e-06 0 5.1077624404399376e-06 -5.1339258403204849e-06 0 5.0506313957837706e-06 -7.1286929141411864e-06 0 5.1077624404399376e-06 -5.1339258403204849e-06 0 4.0445400598341849e-06 -4.8381481827223793e-06 0 5.6860180756956308e-06 -5.0936850105710955e-06 0 4.9526689004367203e-06 -7.2482431619772046e-06 0 5.1077624404399376e-06 -5.1339258403204849e-06 0 2.4796556993267744e-06 -1.1518942420938941e-05 0 3.7375253780243642e-06 -7.6606215196022766e-06 0 5.8730906152776202e-06 -9.9683330501472145e-06 0 3.8962854221342147e-07 -8.8050122207677526e-06 0 2.4796556993267744e-06 -1.1518942420938941e-05 0 3.7375253780243642e-06 -7.6606215196022766e-06 0 5.0506313957837706e-06 -7.1286929141411864e-06 0 3.7375253780243642e-06 -7.6606215196022766e-06 0 5.8730906152776202e-06 -9.9683330501472145e-06 0 5.0506313957837706e-06 -7.1286929141411864e-06 0 3.7375253780243642e-06 -7.6606215196022766e-06 0 4.0445400598341849e-06 -4.8381481827223793e-06 0 3.8962854221342147e-07 -8.8050122207677526e-06 0 3.7375253780243642e-06 -7.6606215196022766e-06 0 1.5633737098071207e-06 -5.5723061056407055e-06 0 3.7375253780243642e-06 -7.6606215196022766e-06 0 1.5633737098071207e-06 -5.5723061056407055e-06 0 4.0445400598341849e-06 -4.8381481827223793e-06 0 1.5633737098071207e-06 -5.5723061056407055e-06 0 4.0445400598341849e-06 -4.8381481827223793e-06 0 1.9881405863168709e-06 -3.0735175113128554e-06 0 4.0445400598341849e-06 -4.8381481827223793e-06 0 1.9881405863168709e-06 -3.0735175113128554e-06 0 3.5160324820621017e-06 -2.3133029182148695e-06 0 5.6128303034999529e-06 -3.4366502781615846e-06 0 5.1077624404399376e-06 -5.1339258403204849e-06 0 4.5918914658634432e-06 -3.4593732693157029e-06 0 5.1077624404399376e-06 -5.1339258403204849e-06 0 4.0445400598341849e-06 -4.8381481827223793e-06 0 4.5918914658634432e-06 -3.4593732693157029e-06 0 4.0445400598341849e-06 -4.8381481827223793e-06 0 4.5918914658634432e-06 -3.4593732693157029e-06 0 3.5160324820621017e-06 -2.3133029182148695e-06 0 4.5918914658634432e-06 -3.4593732693157029e-06 0 3.5160324820621017e-06 -2.3133029182148695e-06 0 4.3009390846945404e-06 -7.6844418154124081e-07 0 5.1645573941710429e-06 -2.1522290393372291e-06 0 4.5918914658634432e-06 -3.4593732693157029e-06 0 4.3009390846945404e-06 -7.6844418154124081e-07 0 3.5160324820621017e-06 -2.3133029182148695e-06 0 3.3047996381237171e-06 -8.7634349373800889e-07 0 4.3009390846945404e-06 -7.6844418154124081e-07 0 3.3047996381237171e-06 -8.7634349373800889e-07 0 4.3009390846945404e-06 -7.6844418154124081e-07 0 3.5178635085494559e-06 1.6380332762139138e-08 0 1.619877852880602e-07 -1.4244789800303632e-06 0 1.9881405863168709e-06 -3.0735175113128554e-06 0 2.2184619986734967e-06 -1.2096755999299568e-06 0 1.9881405863168709e-06 -3.0735175113128554e-06 0 3.5160324820621017e-06 -2.3133029182148695e-06 0 2.2184619986734967e-06 -1.2096755999299568e-06 0 3.5160324820621017e-06 -2.3133029182148695e-06 0 3.3047996381237171e-06 -8.7634349373800889e-07 0 2.2184619986734967e-06 -1.2096755999299568e-06 0 3.3047996381237171e-06 -8.7634349373800889e-07 0 2.2184619986734967e-06 -1.2096755999299568e-06 0 2.5686177259336659e-06 2.2114104723597836e-08 0 1.619877852880602e-07 -1.4244789800303632e-06 0 2.2184619986734967e-06 -1.2096755999299568e-06 0 1.2447401405780416e-06 4.8432599914418523e-08 0 2.2184619986734967e-06 -1.2096755999299568e-06 0 1.2447401405780416e-06 4.8432599914418523e-08 0 2.5686177259336659e-06 2.2114104723597836e-08 0 1.2447401405780416e-06 4.8432599914418523e-08 0 2.5686177259336659e-06 2.2114104723597836e-08 0 1.729432056027144e-06 1.0049080538290176e-06 0 1.2447401405780416e-06 4.8432599914418523e-08 0 5.6546180878362256e-07 8.6751714744460326e-07 0 1.729432056027144e-06 1.0049080538290176e-06 0 -3.5158649456619708e-07 2.9226518160827807e-07 0 1.2447401405780416e-06 4.8432599914418523e-08 0 5.6546180878362256e-07 8.6751714744460326e-07 0 4.3009390846945404e-06 -7.6844418154124081e-07 0 3.5178635085494559e-06 1.6380332762139138e-08 0 4.075123388426763e-06 5.1967233658899675e-07 0 3.3047996381237171e-06 -8.7634349373800889e-07 0 3.5178635085494559e-06 1.6380332762139138e-08 0 2.5686177259336659e-06 2.2114104723597836e-08 0 3.5178635085494559e-06 1.6380332762139138e-08 0 2.5686177259336659e-06 2.2114104723597836e-08 0 2.966082008985609e-06 7.3008112287201177e-07 0 2.5686177259336659e-06 2.2114104723597836e-08 0 2.966082008985609e-06 7.3008112287201177e-07 0 1.729432056027144e-06 1.0049080538290176e-06 0 3.5178635085494559e-06 1.6380332762139138e-08 0 2.966082008985609e-06 7.3008112287201177e-07 0 4.075123388426763e-06 5.1967233658899675e-07 0 2.966082008985609e-06 7.3008112287201177e-07 0 4.075123388426763e-06 5.1967233658899675e-07 0 2.9758773685276522e-06 1.1995506147032359e-06 0 4.075123388426763e-06 5.1967233658899675e-07 0 5.1893026449205803e-06 5.4565899082987303e-07 0 4.0320378676570527e-06 9.9208823442007888e-07 0 5.1893026449205803e-06 5.4565899082987303e-07 0 5.1649609260292197e-06 9.2214230662367954e-07 0 4.0320378676570527e-06 9.9208823442007888e-07 0 4.075123388426763e-06 5.1967233658899675e-07 0 5.1893026449205803e-06 5.4565899082987303e-07 0 4.9936516466070612e-06 -1.2142368813740142e-07 0 4.3009390846945404e-06 -7.6844418154124081e-07 0 4.075123388426763e-06 5.1967233658899675e-07 0 4.9936516466070612e-06 -1.2142368813740142e-07 0 4.3009390846945404e-06 -7.6844418154124081e-07 0 4.9936516466070612e-06 -1.2142368813740142e-07 0 5.3297833703728205e-06 -9.6383283401092893e-07 0 4.9936516466070612e-06 -1.2142368813740142e-07 0 5.3297833703728205e-06 -9.6383283401092893e-07 0 6.046738211647515e-06 -1.746072632113501e-07 0 5.1893026449205803e-06 5.4565899082987303e-07 0 4.9936516466070612e-06 -1.2142368813740142e-07 0 6.046738211647515e-06 -1.746072632113501e-07 0 5.9576767957106585e-06 -1.6606403172704062e-06 0 5.3297833703728205e-06 -9.6383283401092893e-07 0 6.046738211647515e-06 -1.746072632113501e-07 0 5.1645573941710429e-06 -2.1522290393372291e-06 0 5.9576767957106585e-06 -1.6606403172704062e-06 0 5.3297833703728205e-06 -9.6383283401092893e-07 0 5.1645573941710429e-06 -2.1522290393372291e-06 0 4.3009390846945404e-06 -7.6844418154124081e-07 0 5.3297833703728205e-06 -9.6383283401092893e-07 0 6.9179809782043076e-06 -7.5970702011094348e-07 0 6.964979206964444e-06 3.6711808566306492e-07 0 7.9044562176127946e-06 5.7258458715818152e-07 0 6.9179809782043076e-06 -7.5970702011094348e-07 0 6.964979206964444e-06 3.6711808566306492e-07 0 6.046738211647515e-06 -1.746072632113501e-07 0 5.9576767957106585e-06 -1.6606403172704062e-06 0 6.9179809782043076e-06 -7.5970702011094348e-07 0 6.046738211647515e-06 -1.746072632113501e-07 0 5.1893026449205803e-06 5.4565899082987303e-07 0 6.046738211647515e-06 -1.746072632113501e-07 0 6.2630695264474469e-06 6.6615103736099583e-07 0 6.964979206964444e-06 3.6711808566306492e-07 0 6.2630695264474469e-06 6.6615103736099583e-07 0 7.5608666949095215e-06 1.1991270526473546e-06 0 6.964979206964444e-06 3.6711808566306492e-07 0 6.046738211647515e-06 -1.746072632113501e-07 0 6.2630695264474469e-06 6.6615103736099583e-07 0 6.2630695264474469e-06 6.6615103736099583e-07 0 5.1649609260292197e-06 9.2214230662367954e-07 0 6.3438247534645506e-06 1.0166681633382484e-06 0 5.1893026449205803e-06 5.4565899082987303e-07 0 6.2630695264474469e-06 6.6615103736099583e-07 0 5.1649609260292197e-06 9.2214230662367954e-07 0 5.1649609260292197e-06 9.2214230662367954e-07 0 5.2521807646829834e-06 9.8611957453346096e-07 0 6.3438247534645506e-06 1.0166681633382484e-06 0 5.2521807646829834e-06 9.8611957453346096e-07 0 4.0969195361886023e-06 9.7409551822957554e-07 0 4.2802830654702517e-06 1.0534348969559435e-06 0 4.0969195361886023e-06 9.7409551822957554e-07 0 4.2802830654702517e-06 1.0534348969559435e-06 0 3.3912220542876736e-06 1.1942888234757265e-06 0 5.1649609260292197e-06 9.2214230662367954e-07 0 4.2802830654702517e-06 1.0534348969559435e-06 0 4.0320378676570527e-06 9.9208823442007888e-07 0 5.1649609260292197e-06 9.2214230662367954e-07 0 5.2521807646829834e-06 9.8611957453346096e-07 0 4.2802830654702517e-06 1.0534348969559435e-06 0 4.075123388426763e-06 5.1967233658899675e-07 0 4.0320378676570527e-06 9.9208823442007888e-07 0 2.9758773685276522e-06 1.1995506147032359e-06 0 3.3912220542876736e-06 1.1942888234757265e-06 0 2.4073975228424104e-06 1.3717651516812667e-06 0 2.9758773685276522e-06 1.1995506147032359e-06 0 4.0320378676570527e-06 9.9208823442007888e-07 0 3.3912220542876736e-06 1.1942888234757265e-06 0 2.9758773685276522e-06 1.1995506147032359e-06 0 4.2802830654702517e-06 1.0534348969559435e-06 0 4.0320378676570527e-06 9.9208823442007888e-07 0 3.3912220542876736e-06 1.1942888234757265e-06 0 3.3912220542876736e-06 1.1942888234757265e-06 0 2.3580231901056752e-06 1.1665511751305833e-06 0 3.0988559327343817e-06 1.0193942010070149e-06 0 3.3912220542876736e-06 1.1942888234757265e-06 0 2.4073975228424104e-06 1.3717651516812667e-06 0 2.3580231901056752e-06 1.1665511751305833e-06 0 2.4073975228424104e-06 1.3717651516812667e-06 0 2.3580231901056752e-06 1.1665511751305833e-06 0 1.585668921533482e-06 1.2446939105391272e-06 0 2.3580231901056752e-06 1.1665511751305833e-06 0 3.0988559327343817e-06 1.0193942010070149e-06 0 2.1548899171913257e-06 8.4345005601898152e-07 0 3.0988559327343817e-06 1.0193942010070149e-06 0 2.1548899171913257e-06 8.4345005601898152e-07 0 2.592906648048965e-06 5.8932847889233617e-07 0 3.0988559327343817e-06 1.0193942010070149e-06 0 2.592906648048965e-06 5.8932847889233617e-07 0 3.6618635449098552e-06 7.4529567153419473e-07 0 4.0969195361886023e-06 9.7409551822957554e-07 0 3.0988559327343817e-06 1.0193942010070149e-06 0 3.6618635449098552e-06 7.4529567153419473e-07 0 4.0969195361886023e-06 9.7409551822957554e-07 0 3.3912220542876736e-06 1.1942888234757265e-06 0 3.0988559327343817e-06 1.0193942010070149e-06 0 5.6546180878362256e-07 8.6751714744460326e-07 0 6.7544772234649855e-07 1.4345634213859226e-06 0 1.729432056027144e-06 1.0049080538290176e-06 0 6.7544772234649855e-07 1.4345634213859226e-06 0 1.729432056027144e-06 1.0049080538290176e-06 0 1.6201357259218698e-06 1.4766122187716708e-06 0 6.7544772234649855e-07 1.4345634213859226e-06 0 1.6201357259218698e-06 1.4766122187716708e-06 0 7.3852910767704458e-07 1.6627030552664373e-06 0 1.6201357259218698e-06 1.4766122187716708e-06 0 2.3477117818882215e-06 1.1832343878598253e-06 0 2.1659486999899626e-06 1.4323968344339356e-06 0 1.729432056027144e-06 1.0049080538290176e-06 0 1.6201357259218698e-06 1.4766122187716708e-06 0 2.3477117818882215e-06 1.1832343878598253e-06 0 2.966082008985609e-06 7.3008112287201177e-07 0 1.729432056027144e-06 1.0049080538290176e-06 0 2.3477117818882215e-06 1.1832343878598253e-06 0 2.966082008985609e-06 7.3008112287201177e-07 0 2.3477117818882215e-06 1.1832343878598253e-06 0 2.9758773685276522e-06 1.1995506147032359e-06 0 2.3477117818882215e-06 1.1832343878598253e-06 0 2.9758773685276522e-06 1.1995506147032359e-06 0 2.1659486999899626e-06 1.4323968344339356e-06 0 2.4073975228424104e-06 1.3717651516812667e-06 0 2.9758773685276522e-06 1.1995506147032359e-06 0 2.1659486999899626e-06 1.4323968344339356e-06 0 2.4073975228424104e-06 1.3717651516812667e-06 0 2.1659486999899626e-06 1.4323968344339356e-06 0 1.3939869421095241e-06 1.5658869334478278e-06 0 2.4073975228424104e-06 1.3717651516812667e-06 0 1.3939869421095241e-06 1.5658869334478278e-06 0 1.585668921533482e-06 1.2446939105391272e-06 0 1.6201357259218698e-06 1.4766122187716708e-06 0 2.1659486999899626e-06 1.4323968344339356e-06 0 1.3939869421095241e-06 1.5658869334478278e-06 0 1.6201357259218698e-06 1.4766122187716708e-06 0 1.3939869421095241e-06 1.5658869334478278e-06 0 7.3852910767704458e-07 1.6627030552664373e-06 0 1.3939869421095241e-06 1.5658869334478278e-06 0 7.3852910767704458e-07 1.6627030552664373e-06 0 3.7309892832396644e-07 1.6397690090347075e-06 0 -4.0907738992810011e-08 1.7028164925331896e-06 0 7.3852910767704458e-07 1.6627030552664373e-06 0 3.7309892832396644e-07 1.6397690090347075e-06 0 -2.1653605904585228e-07 1.66485410271645e-06 0 6.7544772234649855e-07 1.4345634213859226e-06 0 7.3852910767704458e-07 1.6627030552664373e-06 0 -2.1653605904585228e-07 1.66485410271645e-06 0 -4.0907738992810011e-08 1.7028164925331896e-06 0 7.3852910767704458e-07 1.6627030552664373e-06 0 -9.4114301835243196e-09 1.5077716916468993e-06 0 6.0781981809248618e-07 1.4102457589108823e-06 0 1.4614844149084533e-07 9.5605598951872611e-07 0 -9.4114301835243196e-09 1.5077716916468993e-06 0 -4.0907738992810011e-08 1.7028164925331896e-06 0 3.7309892832396644e-07 1.6397690090347075e-06 0 -9.4114301835243196e-09 1.5077716916468993e-06 0 3.7309892832396644e-07 1.6397690090347075e-06 0 6.0781981809248618e-07 1.4102457589108823e-06 0 1.3939869421095241e-06 1.5658869334478278e-06 0 3.7309892832396644e-07 1.6397690090347075e-06 0 6.0781981809248618e-07 1.4102457589108823e-06 0 6.0781981809248618e-07 1.4102457589108823e-06 0 3.7418763386738777e-07 8.1945474915321631e-07 0 1.4614844149084533e-07 9.5605598951872611e-07 0 6.0781981809248618e-07 1.4102457589108823e-06 0 9.3042873903424107e-07 1.2229403928779289e-06 0 3.7418763386738777e-07 8.1945474915321631e-07 0 1.3939869421095241e-06 1.5658869334478278e-06 0 6.0781981809248618e-07 1.4102457589108823e-06 0 9.3042873903424107e-07 1.2229403928779289e-06 0 1.3939869421095241e-06 1.5658869334478278e-06 0 9.3042873903424107e-07 1.2229403928779289e-06 0 1.585668921533482e-06 1.2446939105391272e-06 0 9.3042873903424107e-07 1.2229403928779289e-06 0 1.585668921533482e-06 1.2446939105391272e-06 0 6.3751082249715372e-07 7.5886614775171936e-07 0 9.3042873903424107e-07 1.2229403928779289e-06 0 3.7418763386738777e-07 8.1945474915321631e-07 0 6.3751082249715372e-07 7.5886614775171936e-07 0 4.3420840487115568e-10 3.7803925579601328e-10 0 3.7418763386738777e-07 8.1945474915321631e-07 0 6.3751082249715372e-07 7.5886614775171936e-07 0 4.3420840487115568e-10 3.7803925579601328e-10 0 3.7418763386738777e-07 8.1945474915321631e-07 0 2.6089295735106774e-10 3.7760330597332007e-10 0 3.7418763386738777e-07 8.1945474915321631e-07 0 2.6089295735106774e-10 3.7760330597332007e-10 0 1.4614844149084533e-07 9.5605598951872611e-07 0 2.6089295735106774e-10 3.7760330597332007e-10 0 -6.0039706279391875e-12 4.3712421094275044e-10 0 1.4614844149084533e-07 9.5605598951872611e-07 0 -1.0666522884411388e-07 8.842176001655935e-07 0 -6.0039706279391875e-12 4.3712421094275044e-10 0 1.4614844149084533e-07 9.5605598951872611e-07 0 1.3349224206917694e-06 4.6192200138259293e-07 0 2.1548899171913257e-06 8.4345005601898152e-07 0 1.3088302449147817e-06 8.1062481344212338e-07 0 1.3349224206917694e-06 4.6192200138259293e-07 0 2.1548899171913257e-06 8.4345005601898152e-07 0 2.592906648048965e-06 5.8932847889233617e-07 0 2.3580231901056752e-06 1.1665511751305833e-06 0 2.1548899171913257e-06 8.4345005601898152e-07 0 1.3088302449147817e-06 8.1062481344212338e-07 0 2.3580231901056752e-06 1.1665511751305833e-06 0 1.585668921533482e-06 1.2446939105391272e-06 0 1.3088302449147817e-06 8.1062481344212338e-07 0 1.585668921533482e-06 1.2446939105391272e-06 0 1.3088302449147817e-06 8.1062481344212338e-07 0 6.3751082249715372e-07 7.5886614775171936e-07 0 1.3088302449147817e-06 8.1062481344212338e-07 0 5.4160211824908495e-07 4.5954739499363178e-07 0 6.3751082249715372e-07 7.5886614775171936e-07 0 4.3420840487115568e-10 3.7803925579601328e-10 0 6.3751082249715372e-07 7.5886614775171936e-07 0 6.764050392747184e-10 2.423929869912801e-10 0 5.4160211824908495e-07 4.5954739499363178e-07 0 6.3751082249715372e-07 7.5886614775171936e-07 0 6.764050392747184e-10 2.423929869912801e-10 0 5.4160211824908495e-07 4.5954739499363178e-07 0 6.764050392747184e-10 2.423929869912801e-10 0 7.9092569242671663e-10 2.0371268634392285e-10 0 5.4160211824908495e-07 4.5954739499363178e-07 0 7.9092569242671663e-10 2.0371268634392285e-10 0 5.7074029650739079e-07 3.3745433304640591e-07 0 1.3349224206917694e-06 4.6192200138259293e-07 0 5.7074029650739079e-07 3.3745433304640591e-07 0 8.5138589078425665e-10 1.6773725258495142e-10 0 1.3349224206917694e-06 4.6192200138259293e-07 0 1.3088302449147817e-06 8.1062481344212338e-07 0 5.7074029650739079e-07 3.3745433304640591e-07 0 1.3088302449147817e-06 8.1062481344212338e-07 0 5.4160211824908495e-07 4.5954739499363178e-07 0 5.7074029650739079e-07 3.3745433304640591e-07 0 7.9092569242671663e-10 2.0371268634392285e-10 0 5.7074029650739079e-07 3.3745433304640591e-07 0 8.5138589078425665e-10 1.6773725258495142e-10 0 1.3349224206917694e-06 4.6192200138259293e-07 0 8.5138589078425665e-10 1.6773725258495142e-10 0 8.6809816734824152e-07 1.2275553277182276e-07 0 8.5138589078425665e-10 1.6773725258495142e-10 0 9.1380114718709338e-10 -6.2683321794509778e-11 0 8.6809816734824152e-07 1.2275553277182276e-07 0 9.1380114718709338e-10 -6.2683321794509778e-11 0 8.6809816734824152e-07 1.2275553277182276e-07 0 6.6111611572092649e-07 -7.4854499815460085e-08 0 8.6809816734824152e-07 1.2275553277182276e-07 0 1.6329945852488174e-06 -4.8896269580937613e-08 0 6.6111611572092649e-07 -7.4854499815460085e-08 0 1.3349224206917694e-06 4.6192200138259293e-07 0 8.6809816734824152e-07 1.2275553277182276e-07 0 1.791977498430679e-06 2.3611546397598774e-07 0 1.3349224206917694e-06 4.6192200138259293e-07 0 1.791977498430679e-06 2.3611546397598774e-07 0 2.592906648048965e-06 5.8932847889233617e-07 0 8.6809816734824152e-07 1.2275553277182276e-07 0 1.791977498430679e-06 2.3611546397598774e-07 0 1.6329945852488174e-06 -4.8896269580937613e-08 0 1.791977498430679e-06 2.3611546397598774e-07 0 2.5777600717385918e-06 4.8804584770749477e-08 0 1.6329945852488174e-06 -4.8896269580937613e-08 0 1.791977498430679e-06 2.3611546397598774e-07 0 2.592906648048965e-06 5.8932847889233617e-07 0 2.5777600717385918e-06 4.8804584770749477e-08 0 2.1852522932749712e-06 -3.7791716996141531e-07 0 2.5777600717385918e-06 4.8804584770749477e-08 0 1.6329945852488174e-06 -4.8896269580937613e-08 0 2.1852522932749712e-06 -3.7791716996141531e-07 0 9.44457839687702e-07 -3.3828114621626033e-07 0 1.6116918391347031e-06 -7.2593312742816923e-07 0 2.1852522932749712e-06 -3.7791716996141531e-07 0 1.6329945852488174e-06 -4.8896269580937613e-08 0 9.44457839687702e-07 -3.3828114621626033e-07 0 1.6329945852488174e-06 -4.8896269580937613e-08 0 9.44457839687702e-07 -3.3828114621626033e-07 0 6.6111611572092649e-07 -7.4854499815460085e-08 0 9.1380114718709338e-10 -6.2683321794509778e-11 0 6.6111611572092649e-07 -7.4854499815460085e-08 0 9.2593935014569712e-10 1.2530042966773868e-12 0 9.44457839687702e-07 -3.3828114621626033e-07 0 9.2593935014569712e-10 1.2530042966773868e-12 0 7.2562169121888879e-10 -2.8174086037448711e-10 0 9.44457839687702e-07 -3.3828114621626033e-07 0 6.6111611572092649e-07 -7.4854499815460085e-08 0 9.2593935014569712e-10 1.2530042966773868e-12 0 7.2562169121888879e-10 -2.8174086037448711e-10 0 7.3149233872212921e-07 -6.317871233167122e-07 0 5.392301719341093e-10 -3.5535680319266318e-10 0 9.44457839687702e-07 -3.3828114621626033e-07 0 7.3149233872212921e-07 -6.317871233167122e-07 0 1.6116918391347031e-06 -7.2593312742816923e-07 0 9.44457839687702e-07 -3.3828114621626033e-07 0 7.2562169121888879e-10 -2.8174086037448711e-10 0 7.3149233872212921e-07 -6.317871233167122e-07 0 5.392301719341093e-10 -3.5535680319266318e-10 0 4.7728357161308052e-07 -9.8260557802428193e-07 0 2.4083277160621752e-10 -5.2370166758031872e-10 0 7.3149233872212921e-07 -6.317871233167122e-07 0 5.392301719341093e-10 -3.5535680319266318e-10 0 4.7728357161308052e-07 -9.8260557802428193e-07 0 4.7728357161308052e-07 -9.8260557802428193e-07 0 2.4083277160621752e-10 -5.2370166758031872e-10 0 1.1390019809196381e-07 -1.0615643515830455e-06 0 4.7728357161308052e-07 -9.8260557802428193e-07 0 1.5594980597109106e-06 -1.2355804726333373e-06 0 5.9976060632390433e-07 -1.6371085257491025e-06 0 1.5594980597109106e-06 -1.2355804726333373e-06 0 1.3909401124239662e-06 -1.5795174782361333e-06 0 5.9976060632390433e-07 -1.6371085257491025e-06 0 7.3149233872212921e-07 -6.317871233167122e-07 0 4.7728357161308052e-07 -9.8260557802428193e-07 0 1.5594980597109106e-06 -1.2355804726333373e-06 0 1.3909401124239662e-06 -1.5795174782361333e-06 0 5.9976060632390433e-07 -1.6371085257491025e-06 0 1.130587342159278e-06 -1.7822690589974834e-06 0 7.3149233872212921e-07 -6.317871233167122e-07 0 1.5594980597109106e-06 -1.2355804726333373e-06 0 1.6116918391347031e-06 -7.2593312742816923e-07 0 1.5594980597109106e-06 -1.2355804726333373e-06 0 1.6116918391347031e-06 -7.2593312742816923e-07 0 2.5172028672853579e-06 -6.9287639453105407e-07 0 2.1852522932749712e-06 -3.7791716996141531e-07 0 1.6116918391347031e-06 -7.2593312742816923e-07 0 2.5172028672853579e-06 -6.9287639453105407e-07 0 1.5594980597109106e-06 -1.2355804726333373e-06 0 2.5172028672853579e-06 -6.9287639453105407e-07 0 3.3408747295368751e-06 -8.3754351668509191e-07 0 2.5172028672853579e-06 -6.9287639453105407e-07 0 3.3408747295368751e-06 -8.3754351668509191e-07 0 3.6403106349198159e-06 -1.9092318610648981e-07 0 3.3408747295368751e-06 -8.3754351668509191e-07 0 4.734410067321594e-06 -3.1900367199689456e-08 0 3.6403106349198159e-06 -1.9092318610648981e-07 0 1.5594980597109106e-06 -1.2355804726333373e-06 0 3.3408747295368751e-06 -8.3754351668509191e-07 0 2.3149778128036084e-06 -1.3673034948495135e-06 0 1.3909401124239662e-06 -1.5795174782361333e-06 0 2.3149778128036084e-06 -1.3673034948495135e-06 0 1.130587342159278e-06 -1.7822690589974834e-06 0 1.5594980597109106e-06 -1.2355804726333373e-06 0 1.3909401124239662e-06 -1.5795174782361333e-06 0 2.3149778128036084e-06 -1.3673034948495135e-06 0 3.3408747295368751e-06 -8.3754351668509191e-07 0 2.3149778128036084e-06 -1.3673034948495135e-06 0 3.1506560168387056e-06 -1.0912650441839996e-06 0 2.3149778128036084e-06 -1.3673034948495135e-06 0 1.130587342159278e-06 -1.7822690589974834e-06 0 1.5678607205183281e-06 -1.7046755139634896e-06 0 2.3149778128036084e-06 -1.3673034948495135e-06 0 3.1506560168387056e-06 -1.0912650441839996e-06 0 1.5678607205183281e-06 -1.7046755139634896e-06 0 3.1506560168387056e-06 -1.0912650441839996e-06 0 3.530932243326406e-06 -8.4386306280396231e-07 0 1.5678607205183281e-06 -1.7046755139634896e-06 0 3.1506560168387056e-06 -1.0912650441839996e-06 0 3.530932243326406e-06 -8.4386306280396231e-07 0 4.8515445261067736e-06 -2.9140129446700819e-07 0 3.530932243326406e-06 -8.4386306280396231e-07 0 4.8515445261067736e-06 -2.9140129446700819e-07 0 5.3142674902790191e-06 2.1832437209862615e-07 0 3.530932243326406e-06 -8.4386306280396231e-07 0 1.3174788406601921e-06 -1.2990532483983274e-06 0 3.5197639107434818e-06 -3.0219196925836964e-07 0 3.530932243326406e-06 -8.4386306280396231e-07 0 3.5197639107434818e-06 -3.0219196925836964e-07 0 5.3142674902790191e-06 2.1832437209862615e-07 0 3.3408747295368751e-06 -8.3754351668509191e-07 0 4.8515445261067736e-06 -2.9140129446700819e-07 0 4.734410067321594e-06 -3.1900367199689456e-08 0 3.3408747295368751e-06 -8.3754351668509191e-07 0 3.1506560168387056e-06 -1.0912650441839996e-06 0 4.8515445261067736e-06 -2.9140129446700819e-07 0 4.8515445261067736e-06 -2.9140129446700819e-07 0 6.0841498855907016e-06 5.2037919032334067e-07 0 4.734410067321594e-06 -3.1900367199689456e-08 0 4.8515445261067736e-06 -2.9140129446700819e-07 0 6.0841498855907016e-06 5.2037919032334067e-07 0 6.9369712211752913e-06 9.640869066061507e-07 0 6.0841498855907016e-06 5.2037919032334067e-07 0 4.734410067321594e-06 -3.1900367199689456e-08 0 5.611711399712837e-06 5.9107470364888248e-07 0 6.0841498855907016e-06 5.2037919032334067e-07 0 5.611711399712837e-06 5.9107470364888248e-07 0 6.7956852248025127e-06 9.9150491947410161e-07 0 4.734410067321594e-06 -3.1900367199689456e-08 0 5.611711399712837e-06 5.9107470364888248e-07 0 4.4156391717194753e-06 2.7293375951380259e-07 0 5.611711399712837e-06 5.9107470364888248e-07 0 4.704068040302083e-06 7.2626608606948925e-07 0 4.4156391717194753e-06 2.7293375951380259e-07 0 5.611711399712837e-06 5.9107470364888248e-07 0 6.1134411366692186e-06 9.6639118767777192e-07 0 6.7956852248025127e-06 9.9150491947410161e-07 0 5.611711399712837e-06 5.9107470364888248e-07 0 4.704068040302083e-06 7.2626608606948925e-07 0 6.1134411366692186e-06 9.6639118767777192e-07 0 5.2521807646829834e-06 9.8611957453346096e-07 0 4.704068040302083e-06 7.2626608606948925e-07 0 6.1134411366692186e-06 9.6639118767777192e-07 0 4.0969195361886023e-06 9.7409551822957554e-07 0 4.704068040302083e-06 7.2626608606948925e-07 0 3.6618635449098552e-06 7.4529567153419473e-07 0 5.2521807646829834e-06 9.8611957453346096e-07 0 4.0969195361886023e-06 9.7409551822957554e-07 0 4.704068040302083e-06 7.2626608606948925e-07 0 4.704068040302083e-06 7.2626608606948925e-07 0 3.4345152172636813e-06 3.2594955557268115e-07 0 4.4156391717194753e-06 2.7293375951380259e-07 0 4.704068040302083e-06 7.2626608606948925e-07 0 3.6618635449098552e-06 7.4529567153419473e-07 0 3.4345152172636813e-06 3.2594955557268115e-07 0 2.592906648048965e-06 5.8932847889233617e-07 0 3.6618635449098552e-06 7.4529567153419473e-07 0 3.4345152172636813e-06 3.2594955557268115e-07 0 2.592906648048965e-06 5.8932847889233617e-07 0 2.5777600717385918e-06 4.8804584770749477e-08 0 3.4345152172636813e-06 3.2594955557268115e-07 0 2.5777600717385918e-06 4.8804584770749477e-08 0 3.4345152172636813e-06 3.2594955557268115e-07 0 3.6403106349198159e-06 -1.9092318610648981e-07 0 2.1852522932749712e-06 -3.7791716996141531e-07 0 2.5777600717385918e-06 4.8804584770749477e-08 0 3.6403106349198159e-06 -1.9092318610648981e-07 0 2.1852522932749712e-06 -3.7791716996141531e-07 0 2.5172028672853579e-06 -6.9287639453105407e-07 0 3.6403106349198159e-06 -1.9092318610648981e-07 0 4.734410067321594e-06 -3.1900367199689456e-08 0 3.6403106349198159e-06 -1.9092318610648981e-07 0 4.4156391717194753e-06 2.7293375951380259e-07 0 3.4345152172636813e-06 3.2594955557268115e-07 0 3.6403106349198159e-06 -1.9092318610648981e-07 0 4.4156391717194753e-06 2.7293375951380259e-07 0 -3.3137460329280731e-06 -5.698380698047144e-07 0 -3.1549768679252064e-06 -1.2058032058211248e-06 0 -5.6979672327297452e-06 -6.8835100261152261e-07 0 -3.1549768679252064e-06 -1.2058032058211248e-06 0 -1.4433179130338306e-06 -7.4888921923626661e-07 0 -1.8954191819466302e-06 -1.4807988620822462e-06 0 -3.3137460329280731e-06 -5.698380698047144e-07 0 -1.4379474145751185e-06 -1.3187281023019542e-07 0 -1.4433179130338306e-06 -7.4888921923626661e-07 0 -3.3137460329280731e-06 -5.698380698047144e-07 0 -3.1549768679252064e-06 -1.2058032058211248e-06 0 -1.4433179130338306e-06 -7.4888921923626661e-07 0 -1.4379474145751185e-06 -1.3187281023019542e-07 0 -6.4396756146680437e-07 -2.2492180678021186e-07 0 -1.4433179130338306e-06 -7.4888921923626661e-07 0 -1.4379474145751185e-06 -1.3187281023019542e-07 0 -1.1509262990884072e-09 4.7044283322630256e-10 0 -6.4396756146680437e-07 -2.2492180678021186e-07 0 -1.1509262990884072e-09 4.7044283322630256e-10 0 -6.4396756146680437e-07 -2.2492180678021186e-07 0 -1.1768339831651664e-09 -4.5293479325352091e-10 0 -6.4396756146680437e-07 -2.2492180678021186e-07 0 -1.1768339831651664e-09 -4.5293479325352091e-10 0 -1.4433179130338306e-06 -7.4888921923626661e-07 0 -1.1768339831651664e-09 -4.5293479325352091e-10 0 -1.4433179130338306e-06 -7.4888921923626661e-07 0 -8.5182262389188509e-07 -9.7876884615554227e-07 0 -1.4433179130338306e-06 -7.4888921923626661e-07 0 -8.5182262389188509e-07 -9.7876884615554227e-07 0 -1.8954191819466302e-06 -1.4807988620822462e-06 0 -1.1768339831651664e-09 -4.5293479325352091e-10 0 -1.0347743226890812e-09 -2.5393618710235073e-10 0 -8.5182262389188509e-07 -9.7876884615554227e-07 0 -1.0347743226890812e-09 -2.5393618710235073e-10 0 -8.5182262389188509e-07 -9.7876884615554227e-07 0 -4.4497623396574731e-10 -7.4220199529283659e-10 0 -8.5182262389188509e-07 -9.7876884615554227e-07 0 -1.8954191819466302e-06 -1.4807988620822462e-06 0 -8.2606433839728782e-07 -1.5035142288015911e-06 0 -1.8954191819466302e-06 -1.4807988620822462e-06 0 -1.7080471144332451e-06 -1.9421736494686204e-06 0 -8.2606433839728782e-07 -1.5035142288015911e-06 0 -3.1549768679252064e-06 -1.2058032058211248e-06 0 -1.8954191819466302e-06 -1.4807988620822462e-06 0 -2.9188890770119747e-06 -1.8663601268648747e-06 0 -3.1549768679252064e-06 -1.2058032058211248e-06 0 -2.9188890770119747e-06 -1.8663601268648747e-06 0 -4.4739364589410023e-06 -1.551063005831934e-06 0 -2.9188890770119747e-06 -1.8663601268648747e-06 0 -1.7080471144332451e-06 -1.9421736494686204e-06 0 -1.8649140971901243e-06 -2.1826915041743537e-06 0 -1.8954191819466302e-06 -1.4807988620822462e-06 0 -2.9188890770119747e-06 -1.8663601268648747e-06 0 -1.7080471144332451e-06 -1.9421736494686204e-06 0 -1.7080471144332451e-06 -1.9421736494686204e-06 0 -9.4202616018227521e-07 -2.0368160194284567e-06 0 -1.8649140971901243e-06 -2.1826915041743537e-06 0 -9.4202616018227521e-07 -2.0368160194284567e-06 0 -8.2606433839728782e-07 -1.5035142288015911e-06 0 -1.6190833042170525e-07 -1.7310689730801783e-06 0 -1.7080471144332451e-06 -1.9421736494686204e-06 0 -9.4202616018227521e-07 -2.0368160194284567e-06 0 -8.2606433839728782e-07 -1.5035142288015911e-06 0 -8.2606433839728782e-07 -1.5035142288015911e-06 0 -4.4497623396574731e-10 -7.4220199529283659e-10 0 -1.9112175931402241e-07 -9.8745487134393345e-07 0 -8.5182262389188509e-07 -9.7876884615554227e-07 0 -8.2606433839728782e-07 -1.5035142288015911e-06 0 -4.4497623396574731e-10 -7.4220199529283659e-10 0 -4.4497623396574731e-10 -7.4220199529283659e-10 0 -1.9112175931402241e-07 -9.8745487134393345e-07 0 -1.386220140389449e-10 -4.7327813213046083e-10 0 -8.2606433839728782e-07 -1.5035142288015911e-06 0 -1.9112175931402241e-07 -9.8745487134393345e-07 0 -1.6190833042170525e-07 -1.7310689730801783e-06 0 -1.9112175931402241e-07 -9.8745487134393345e-07 0 1.1390019809196381e-07 -1.0615643515830455e-06 0 -1.6190833042170525e-07 -1.7310689730801783e-06 0 -1.9112175931402241e-07 -9.8745487134393345e-07 0 -1.386220140389449e-10 -4.7327813213046083e-10 0 1.1390019809196381e-07 -1.0615643515830455e-06 0 -1.386220140389449e-10 -4.7327813213046083e-10 0 2.4083277160621752e-10 -5.2370166758031872e-10 0 1.1390019809196381e-07 -1.0615643515830455e-06 0 4.7728357161308052e-07 -9.8260557802428193e-07 0 1.1390019809196381e-07 -1.0615643515830455e-06 0 5.9976060632390433e-07 -1.6371085257491025e-06 0 1.1390019809196381e-07 -1.0615643515830455e-06 0 5.9976060632390433e-07 -1.6371085257491025e-06 0 -1.6190833042170525e-07 -1.7310689730801783e-06 0 -9.4202616018227521e-07 -2.0368160194284567e-06 0 -1.6190833042170525e-07 -1.7310689730801783e-06 0 -1.5502847264935251e-09 -2.1125551320186104e-06 0 5.9976060632390433e-07 -1.6371085257491025e-06 0 -1.6190833042170525e-07 -1.7310689730801783e-06 0 -1.5502847264935251e-09 -2.1125551320186104e-06 0 5.9976060632390433e-07 -1.6371085257491025e-06 0 1.130587342159278e-06 -1.7822690589974834e-06 0 -1.5502847264935251e-09 -2.1125551320186104e-06 0 1.130587342159278e-06 -1.7822690589974834e-06 0 -1.5502847264935251e-09 -2.1125551320186104e-06 0 1.5678607205183281e-06 -1.7046755139634896e-06 0 -1.5502847264935251e-09 -2.1125551320186104e-06 0 1.5678607205183281e-06 -1.7046755139634896e-06 0 -7.2136462187896575e-07 -2.0812545448212778e-06 0 3.530932243326406e-06 -8.4386306280396231e-07 0 1.5678607205183281e-06 -1.7046755139634896e-06 0 1.3174788406601921e-06 -1.2990532483983274e-06 0 1.3174788406601921e-06 -1.2990532483983274e-06 0 -8.4669230119619761e-07 -1.5205256123819306e-06 0 -4.5870385268180974e-07 -5.5147511765137298e-07 0 1.3174788406601921e-06 -1.2990532483983274e-06 0 -8.4669230119619761e-07 -1.5205256123819306e-06 0 -7.2136462187896575e-07 -2.0812545448212778e-06 0 1.5678607205183281e-06 -1.7046755139634896e-06 0 1.3174788406601921e-06 -1.2990532483983274e-06 0 -7.2136462187896575e-07 -2.0812545448212778e-06 0 -8.4669230119619761e-07 -1.5205256123819306e-06 0 -3.1435752201920225e-06 -1.8789756593791784e-06 0 -7.2136462187896575e-07 -2.0812545448212778e-06 0 -8.4669230119619761e-07 -1.5205256123819306e-06 0 -3.1867071591860268e-06 -1.0608836850226214e-06 0 -4.5870385268180974e-07 -5.5147511765137298e-07 0 -8.4669230119619761e-07 -1.5205256123819306e-06 0 -3.1867071591860268e-06 -1.0608836850226214e-06 0 -3.1435752201920225e-06 -1.8789756593791784e-06 0 -3.1435752201920225e-06 -1.8789756593791784e-06 0 -7.2136462187896575e-07 -2.0812545448212778e-06 0 -1.8649140971901243e-06 -2.1826915041743537e-06 0 -3.1435752201920225e-06 -1.8789756593791784e-06 0 -1.8649140971901243e-06 -2.1826915041743537e-06 0 -3.6354238328112903e-06 -1.922003456380988e-06 0 -1.5502847264935251e-09 -2.1125551320186104e-06 0 -7.2136462187896575e-07 -2.0812545448212778e-06 0 -1.8649140971901243e-06 -2.1826915041743537e-06 0 -9.4202616018227521e-07 -2.0368160194284567e-06 0 -1.5502847264935251e-09 -2.1125551320186104e-06 0 -1.8649140971901243e-06 -2.1826915041743537e-06 0 -2.9188890770119747e-06 -1.8663601268648747e-06 0 -1.8649140971901243e-06 -2.1826915041743537e-06 0 -3.6354238328112903e-06 -1.922003456380988e-06 0 -2.9188890770119747e-06 -1.8663601268648747e-06 0 -3.6354238328112903e-06 -1.922003456380988e-06 0 -4.4739364589410023e-06 -1.551063005831934e-06 0 -3.6354238328112903e-06 -1.922003456380988e-06 0 -5.6120131167795273e-06 -1.4287420187030498e-06 0 -4.4739364589410023e-06 -1.551063005831934e-06 0 -3.1435752201920225e-06 -1.8789756593791784e-06 0 -3.6354238328112903e-06 -1.922003456380988e-06 0 -5.6120131167795273e-06 -1.4287420187030498e-06 0 -3.1435752201920225e-06 -1.8789756593791784e-06 0 -6.5880634656710572e-06 -6.5870087678834748e-07 0 -5.6120131167795273e-06 -1.4287420187030498e-06 0 -3.1867071591860268e-06 -1.0608836850226214e-06 0 -3.1435752201920225e-06 -1.8789756593791784e-06 0 -6.5880634656710572e-06 -6.5870087678834748e-07 0 -6.5880634656710572e-06 -6.5870087678834748e-07 0 -5.6120131167795273e-06 -1.4287420187030498e-06 0 -8.6906590900373754e-06 -3.7323798680284353e-07 0 -5.6120131167795273e-06 -1.4287420187030498e-06 0 -8.6906590900373754e-06 -3.7323798680284353e-07 0 -6.7229096914777877e-06 -1.0105133550208276e-06 0 -6.5880634656710572e-06 -6.5870087678834748e-07 0 -8.6906590900373754e-06 -3.7323798680284353e-07 0 -1.0942136820740135e-05 1.1408362077772138e-06 0 -8.6906590900373754e-06 -3.7323798680284353e-07 0 -8.5977590822077853e-06 -1.2438992666473517e-07 0 -1.203968052179176e-05 1.1953266181315629e-06 0 -8.6906590900373754e-06 -3.7323798680284353e-07 0 -8.5977590822077853e-06 -1.2438992666473517e-07 0 -6.7229096914777877e-06 -1.0105133550208276e-06 0 -8.5977590822077853e-06 -1.2438992666473517e-07 0 -6.7229096914777877e-06 -1.0105133550208276e-06 0 -5.6979672327297452e-06 -6.8835100261152261e-07 0 -5.6120131167795273e-06 -1.4287420187030498e-06 0 -6.7229096914777877e-06 -1.0105133550208276e-06 0 -4.4739364589410023e-06 -1.551063005831934e-06 0 -6.7229096914777877e-06 -1.0105133550208276e-06 0 -4.4739364589410023e-06 -1.551063005831934e-06 0 -5.6979672327297452e-06 -6.8835100261152261e-07 0 -3.1549768679252064e-06 -1.2058032058211248e-06 0 -4.4739364589410023e-06 -1.551063005831934e-06 0 -5.6979672327297452e-06 -6.8835100261152261e-07 0 -2.0530427390545472e-05 7.4707934043803855e-06 0 -1.7887056430970123e-05 7.5093100099682193e-06 0 -1.4316092103113783e-05 4.1340391965491145e-06 0 -2.0530427390545472e-05 7.4707934043803855e-06 0 -1.7887056430970123e-05 7.5093100099682193e-06 0 -2.571889549987901e-05 1.2917793570295123e-05 0 -1.7887056430970123e-05 7.5093100099682193e-06 0 -1.4316092103113783e-05 4.1340391965491145e-06 0 -1.2296046294446308e-05 5.9337372802056505e-06 0 -1.7887056430970123e-05 7.5093100099682193e-06 0 -1.2296046294446308e-05 5.9337372802056505e-06 0 -1.7718264185110781e-05 1.0857690466957453e-05 0 -2.0530427390545472e-05 7.4707934043803855e-06 0 -1.4316092103113783e-05 4.1340391965491145e-06 0 -1.596657306712914e-05 3.6146969966297775e-06 0 -1.596657306712914e-05 3.6146969966297775e-06 0 -1.203968052179176e-05 1.1953266181315629e-06 0 -1.0942136820740135e-05 1.1408362077772138e-06 0 -8.6906590900373754e-06 -3.7323798680284353e-07 0 -1.203968052179176e-05 1.1953266181315629e-06 0 -1.0942136820740135e-05 1.1408362077772138e-06 0 -1.4316092103113783e-05 4.1340391965491145e-06 0 -1.596657306712914e-05 3.6146969966297775e-06 0 -1.0942136820740135e-05 1.1408362077772138e-06 0 -1.4316092103113783e-05 4.1340391965491145e-06 0 -1.0942136820740135e-05 1.1408362077772138e-06 0 -8.2039765193851185e-06 1.9163484892822883e-06 0 -6.5880634656710572e-06 -6.5870087678834748e-07 0 -5.2794321500031084e-06 7.6119062015055039e-08 0 -8.2039765193851185e-06 1.9163484892822883e-06 0 -6.5880634656710572e-06 -6.5870087678834748e-07 0 -1.0942136820740135e-05 1.1408362077772138e-06 0 -8.2039765193851185e-06 1.9163484892822883e-06 0 -3.1867071591860268e-06 -1.0608836850226214e-06 0 -6.5880634656710572e-06 -6.5870087678834748e-07 0 -5.2794321500031084e-06 7.6119062015055039e-08 0 -8.2039765193851185e-06 1.9163484892822883e-06 0 -1.2296046294446308e-05 5.9337372802056505e-06 0 -7.6782143487409035e-06 5.3386153384394377e-06 0 -1.4316092103113783e-05 4.1340391965491145e-06 0 -8.2039765193851185e-06 1.9163484892822883e-06 0 -1.2296046294446308e-05 5.9337372802056505e-06 0 -1.2296046294446308e-05 5.9337372802056505e-06 0 -7.6782143487409035e-06 5.3386153384394377e-06 0 -1.1124255660995269e-05 9.836615366815586e-06 0 -7.6782143487409035e-06 5.3386153384394377e-06 0 -3.2379483331334977e-06 2.8731628319397693e-06 0 -3.4676915193709209e-06 8.0350611123293543e-06 0 -3.2379483331334977e-06 2.8731628319397693e-06 0 3.8993285934321981e-07 4.1022971533230218e-06 0 -3.4676915193709209e-06 8.0350611123293543e-06 0 -3.2379483331334977e-06 2.8731628319397693e-06 0 -3.1328558487387549e-08 1.2270294827136351e-06 0 3.8993285934321981e-07 4.1022971533230218e-06 0 -8.2039765193851185e-06 1.9163484892822883e-06 0 -7.6782143487409035e-06 5.3386153384394377e-06 0 -3.2379483331334977e-06 2.8731628319397693e-06 0 -8.2039765193851185e-06 1.9163484892822883e-06 0 -3.2379483331334977e-06 2.8731628319397693e-06 0 -3.0320530416023945e-06 6.2588657073460584e-07 0 -5.2794321500031084e-06 7.6119062015055039e-08 0 -8.2039765193851185e-06 1.9163484892822883e-06 0 -3.0320530416023945e-06 6.2588657073460584e-07 0 -3.1867071591860268e-06 -1.0608836850226214e-06 0 -5.2794321500031084e-06 7.6119062015055039e-08 0 -3.0320530416023945e-06 6.2588657073460584e-07 0 -3.1867071591860268e-06 -1.0608836850226214e-06 0 -3.0320530416023945e-06 6.2588657073460584e-07 0 -4.5870385268180974e-07 -5.5147511765137298e-07 0 -3.0320530416023945e-06 6.2588657073460584e-07 0 -4.5870385268180974e-07 -5.5147511765137298e-07 0 -3.1328558487387549e-08 1.2270294827136351e-06 0 -3.2379483331334977e-06 2.8731628319397693e-06 0 -3.0320530416023945e-06 6.2588657073460584e-07 0 -3.1328558487387549e-08 1.2270294827136351e-06 0 -4.5870385268180974e-07 -5.5147511765137298e-07 0 -3.1328558487387549e-08 1.2270294827136351e-06 0 2.1681091981776365e-06 1.1276532916795323e-07 0 -3.1328558487387549e-08 1.2270294827136351e-06 0 2.1681091981776365e-06 1.1276532916795323e-07 0 3.1933328358227656e-06 2.3215774986415807e-06 0 1.3174788406601921e-06 -1.2990532483983274e-06 0 -4.5870385268180974e-07 -5.5147511765137298e-07 0 2.1681091981776365e-06 1.1276532916795323e-07 0 2.1681091981776365e-06 1.1276532916795323e-07 0 3.5197639107434818e-06 -3.0219196925836964e-07 0 4.7782099882467717e-06 9.8361736146763458e-07 0 1.3174788406601921e-06 -1.2990532483983274e-06 0 2.1681091981776365e-06 1.1276532916795323e-07 0 3.5197639107434818e-06 -3.0219196925836964e-07 0 2.1681091981776365e-06 1.1276532916795323e-07 0 3.1933328358227656e-06 2.3215774986415807e-06 0 4.7782099882467717e-06 9.8361736146763458e-07 0 3.1933328358227656e-06 2.3215774986415807e-06 0 4.7782099882467717e-06 9.8361736146763458e-07 0 6.8783535588617666e-06 3.450382463522976e-06 0 -3.1328558487387549e-08 1.2270294827136351e-06 0 3.1933328358227656e-06 2.3215774986415807e-06 0 3.8993285934321981e-07 4.1022971533230218e-06 0 3.1933328358227656e-06 2.3215774986415807e-06 0 3.8993285934321981e-07 4.1022971533230218e-06 0 3.9269477808593917e-06 5.9486147184888959e-06 0 3.1933328358227656e-06 2.3215774986415807e-06 0 3.9269477808593917e-06 5.9486147184888959e-06 0 6.8783535588617666e-06 3.450382463522976e-06 0 3.9269477808593917e-06 5.9486147184888959e-06 0 6.6788654519980173e-06 9.4355925042754948e-06 0 9.2380418039885311e-06 6.5045675630569533e-06 0 3.9269477808593917e-06 5.9486147184888959e-06 0 6.8783535588617666e-06 3.450382463522976e-06 0 9.2380418039885311e-06 6.5045675630569533e-06 0 3.9269477808593917e-06 5.9486147184888959e-06 0 1.570081635288366e-06 1.0817086462060462e-05 0 -3.4676915193709209e-06 8.0350611123293543e-06 0 3.8993285934321981e-07 4.1022971533230218e-06 0 3.9269477808593917e-06 5.9486147184888959e-06 0 -3.4676915193709209e-06 8.0350611123293543e-06 0 3.9269477808593917e-06 5.9486147184888959e-06 0 1.570081635288366e-06 1.0817086462060462e-05 0 6.6788654519980173e-06 9.4355925042754948e-06 0 6.6788654519980173e-06 9.4355925042754948e-06 0 4.7006992037040084e-06 1.5975622354715393e-05 0 1.1700885650671627e-05 1.1048617965396394e-05 0 4.7006992037040084e-06 1.5975622354715393e-05 0 1.1700885650671627e-05 1.1048617965396394e-05 0 1.0571617421673796e-05 2.2687181647915745e-05 0 4.7006992037040084e-06 1.5975622354715393e-05 0 4.3492897117280304e-06 2.5211050199235126e-05 0 1.0571617421673796e-05 2.2687181647915745e-05 0 4.7006992037040084e-06 1.5975622354715393e-05 0 -2.5114250305203998e-06 2.6912200225292437e-05 0 4.3492897117280304e-06 2.5211050199235126e-05 0 1.570081635288366e-06 1.0817086462060462e-05 0 4.7006992037040084e-06 1.5975622354715393e-05 0 -4.7125118128537993e-06 1.7045783378646705e-05 0 1.570081635288366e-06 1.0817086462060462e-05 0 6.6788654519980173e-06 9.4355925042754948e-06 0 4.7006992037040084e-06 1.5975622354715393e-05 0 4.7006992037040084e-06 1.5975622354715393e-05 0 -4.7125118128537993e-06 1.7045783378646705e-05 0 -2.5114250305203998e-06 2.6912200225292437e-05 0 -4.7125118128537993e-06 1.7045783378646705e-05 0 -1.1996168985835053e-05 2.7699407589628332e-05 0 -2.5114250305203998e-06 2.6912200225292437e-05 0 -4.7125118128537993e-06 1.7045783378646705e-05 0 -1.0396147503996137e-05 1.5403862877779704e-05 0 -1.1996168985835053e-05 2.7699407589628332e-05 0 -4.7125118128537993e-06 1.7045783378646705e-05 0 -3.4676915193709209e-06 8.0350611123293543e-06 0 -1.0396147503996137e-05 1.5403862877779704e-05 0 -3.4676915193709209e-06 8.0350611123293543e-06 0 -1.1124255660995269e-05 9.836615366815586e-06 0 -1.0396147503996137e-05 1.5403862877779704e-05 0 1.570081635288366e-06 1.0817086462060462e-05 0 -4.7125118128537993e-06 1.7045783378646705e-05 0 -3.4676915193709209e-06 8.0350611123293543e-06 0 -7.6782143487409035e-06 5.3386153384394377e-06 0 -3.4676915193709209e-06 8.0350611123293543e-06 0 -1.1124255660995269e-05 9.836615366815586e-06 0 -1.2296046294446308e-05 5.9337372802056505e-06 0 -1.1124255660995269e-05 9.836615366815586e-06 0 -1.7718264185110781e-05 1.0857690466957453e-05 0 -1.1124255660995269e-05 9.836615366815586e-06 0 -1.6627662519108918e-05 1.6031876527450739e-05 0 -1.7718264185110781e-05 1.0857690466957453e-05 0 -1.1124255660995269e-05 9.836615366815586e-06 0 -1.6627662519108918e-05 1.6031876527450739e-05 0 -1.0396147503996137e-05 1.5403862877779704e-05 0 -1.6627662519108918e-05 1.6031876527450739e-05 0 -1.0396147503996137e-05 1.5403862877779704e-05 0 -1.759557122718525e-05 2.2871361611122836e-05 0 -1.0396147503996137e-05 1.5403862877779704e-05 0 -1.759557122718525e-05 2.2871361611122836e-05 0 -1.1996168985835053e-05 2.7699407589628332e-05 0 -1.759557122718525e-05 2.2871361611122836e-05 0 -2.4795709398384754e-05 2.3353548371203008e-05 0 -2.4987165961965226e-05 3.4103953293393404e-05 0 -1.759557122718525e-05 2.2871361611122836e-05 0 -2.4987165961965226e-05 3.4103953293393404e-05 0 -1.1996168985835053e-05 2.7699407589628332e-05 0 -1.6627662519108918e-05 1.6031876527450739e-05 0 -1.759557122718525e-05 2.2871361611122836e-05 0 -2.4795709398384754e-05 2.3353548371203008e-05 0 -1.6627662519108918e-05 1.6031876527450739e-05 0 -2.4795709398384754e-05 2.3353548371203008e-05 0 -2.3232282145401996e-05 1.6338694268625837e-05 0 -2.4795709398384754e-05 2.3353548371203008e-05 0 -3.6376936855683416e-05 3.0916050887837462e-05 0 -2.4987165961965226e-05 3.4103953293393404e-05 0 -2.4795709398384754e-05 2.3353548371203008e-05 0 -3.1201539384972527e-05 2.0770429468550132e-05 0 -3.6376936855683416e-05 3.0916050887837462e-05 0 -2.4795709398384754e-05 2.3353548371203008e-05 0 -3.1201539384972527e-05 2.0770429468550132e-05 0 -2.3232282145401996e-05 1.6338694268625837e-05 0 -3.1201539384972527e-05 2.0770429468550132e-05 0 -2.3232282145401996e-05 1.6338694268625837e-05 0 -2.571889549987901e-05 1.2917793570295123e-05 0 -2.3232282145401996e-05 1.6338694268625837e-05 0 -1.7718264185110781e-05 1.0857690466957453e-05 0 -2.571889549987901e-05 1.2917793570295123e-05 0 -1.6627662519108918e-05 1.6031876527450739e-05 0 -2.3232282145401996e-05 1.6338694268625837e-05 0 -1.7718264185110781e-05 1.0857690466957453e-05 0 -1.7887056430970123e-05 7.5093100099682193e-06 0 -1.7718264185110781e-05 1.0857690466957453e-05 0 -2.571889549987901e-05 1.2917793570295123e-05 0 8.3514253633195914e-06 1.815680118840616e-06 0 8.332272953388115e-06 1.8791273285853378e-06 0 9.3505844866239886e-06 2.5299749077104434e-06 0 8.332272953388115e-06 1.8791273285853378e-06 0 9.3505844866239886e-06 2.5299749077104434e-06 0 9.8694475745404975e-06 3.1217504971976316e-06 0 9.3505844866239886e-06 2.5299749077104434e-06 0 9.8694475745404975e-06 3.1217504971976316e-06 0 1.0830998416735724e-05 3.7268856803736652e-06 0 8.3514253633195914e-06 1.815680118840616e-06 0 9.3505844866239886e-06 2.5299749077104434e-06 0 8.8913678299170616e-06 1.8084291161202637e-06 0 8.8913678299170616e-06 1.8084291161202637e-06 0 7.5608666949095215e-06 1.1991270526473546e-06 0 7.9044562176127946e-06 5.7258458715818152e-07 0 8.3514253633195914e-06 1.815680118840616e-06 0 8.8913678299170616e-06 1.8084291161202637e-06 0 7.5608666949095215e-06 1.1991270526473546e-06 0 6.964979206964444e-06 3.6711808566306492e-07 0 7.5608666949095215e-06 1.1991270526473546e-06 0 7.9044562176127946e-06 5.7258458715818152e-07 0 8.3514253633195914e-06 1.815680118840616e-06 0 7.5608666949095215e-06 1.1991270526473546e-06 0 7.2936734965801868e-06 1.3485996002342687e-06 0 7.5608666949095215e-06 1.1991270526473546e-06 0 6.3438247534645506e-06 1.0166681633382484e-06 0 7.2936734965801868e-06 1.3485996002342687e-06 0 6.2630695264474469e-06 6.6615103736099583e-07 0 7.5608666949095215e-06 1.1991270526473546e-06 0 6.3438247534645506e-06 1.0166681633382484e-06 0 5.2521807646829834e-06 9.8611957453346096e-07 0 6.3438247534645506e-06 1.0166681633382484e-06 0 6.1134411366692186e-06 9.6639118767777192e-07 0 6.3438247534645506e-06 1.0166681633382484e-06 0 6.1134411366692186e-06 9.6639118767777192e-07 0 7.2936734965801868e-06 1.3485996002342687e-06 0 6.1134411366692186e-06 9.6639118767777192e-07 0 7.2936734965801868e-06 1.3485996002342687e-06 0 6.7956852248025127e-06 9.9150491947410161e-07 0 8.3514253633195914e-06 1.815680118840616e-06 0 8.332272953388115e-06 1.8791273285853378e-06 0 7.2936734965801868e-06 1.3485996002342687e-06 0 8.332272953388115e-06 1.8791273285853378e-06 0 7.2936734965801868e-06 1.3485996002342687e-06 0 6.7956852248025127e-06 9.9150491947410161e-07 0 8.332272953388115e-06 1.8791273285853378e-06 0 6.7956852248025127e-06 9.9150491947410161e-07 0 6.9369712211752913e-06 9.640869066061507e-07 0 6.0841498855907016e-06 5.2037919032334067e-07 0 6.7956852248025127e-06 9.9150491947410161e-07 0 6.9369712211752913e-06 9.640869066061507e-07 0 4.8515445261067736e-06 -2.9140129446700819e-07 0 6.9369712211752913e-06 9.640869066061507e-07 0 5.3142674902790191e-06 2.1832437209862615e-07 0 6.9369712211752913e-06 9.640869066061507e-07 0 7.1049704385347356e-06 1.7219372216062626e-06 0 8.3993007124477969e-06 2.1436924214281509e-06 0 6.9369712211752913e-06 9.640869066061507e-07 0 5.3142674902790191e-06 2.1832437209862615e-07 0 7.1049704385347356e-06 1.7219372216062626e-06 0 8.332272953388115e-06 1.8791273285853378e-06 0 6.9369712211752913e-06 9.640869066061507e-07 0 8.3993007124477969e-06 2.1436924214281509e-06 0 3.5197639107434818e-06 -3.0219196925836964e-07 0 5.3142674902790191e-06 2.1832437209862615e-07 0 4.7782099882467717e-06 9.8361736146763458e-07 0 5.3142674902790191e-06 2.1832437209862615e-07 0 4.7782099882467717e-06 9.8361736146763458e-07 0 7.1049704385347356e-06 1.7219372216062626e-06 0 4.7782099882467717e-06 9.8361736146763458e-07 0 7.1049704385347356e-06 1.7219372216062626e-06 0 6.8783535588617666e-06 3.450382463522976e-06 0 7.1049704385347356e-06 1.7219372216062626e-06 0 9.6665151968689942e-06 3.8183840130896323e-06 0 6.8783535588617666e-06 3.450382463522976e-06 0 9.6665151968689942e-06 3.8183840130896323e-06 0 6.8783535588617666e-06 3.450382463522976e-06 0 9.2380418039885311e-06 6.5045675630569533e-06 0 8.332272953388115e-06 1.8791273285853378e-06 0 8.3993007124477969e-06 2.1436924214281509e-06 0 9.8694475745404975e-06 3.1217504971976316e-06 0 7.1049704385347356e-06 1.7219372216062626e-06 0 9.6665151968689942e-06 3.8183840130896323e-06 0 8.3993007124477969e-06 2.1436924214281509e-06 0 9.6665151968689942e-06 3.8183840130896323e-06 0 8.3993007124477969e-06 2.1436924214281509e-06 0 9.8694475745404975e-06 3.1217504971976316e-06 0 9.6665151968689942e-06 3.8183840130896323e-06 0 9.8694475745404975e-06 3.1217504971976316e-06 0 1.1480037621163409e-05 4.801414737494219e-06 0 9.8694475745404975e-06 3.1217504971976316e-06 0 1.1480037621163409e-05 4.801414737494219e-06 0 1.0830998416735724e-05 3.7268856803736652e-06 0 9.6665151968689942e-06 3.8183840130896323e-06 0 1.1480037621163409e-05 4.801414737494219e-06 0 1.3464591127245262e-05 7.3906567774735774e-06 0 1.1480037621163409e-05 4.801414737494219e-06 0 1.3464591127245262e-05 7.3906567774735774e-06 0 1.2788252514466804e-05 5.4028589309719672e-06 0 1.2788252514466804e-05 5.4028589309719672e-06 0 1.1135744110850502e-05 3.331180269561188e-06 0 1.0830998416735724e-05 3.7268856803736652e-06 0 1.1480037621163409e-05 4.801414737494219e-06 0 1.2788252514466804e-05 5.4028589309719672e-06 0 1.0830998416735724e-05 3.7268856803736652e-06 0 9.6665151968689942e-06 3.8183840130896323e-06 0 9.2380418039885311e-06 6.5045675630569533e-06 0 1.3464591127245262e-05 7.3906567774735774e-06 0 9.2380418039885311e-06 6.5045675630569533e-06 0 1.3464591127245262e-05 7.3906567774735774e-06 0 1.1700885650671627e-05 1.1048617965396394e-05 0 6.6788654519980173e-06 9.4355925042754948e-06 0 9.2380418039885311e-06 6.5045675630569533e-06 0 1.1700885650671627e-05 1.1048617965396394e-05 0 1.3464591127245262e-05 7.3906567774735774e-06 0 1.1700885650671627e-05 1.1048617965396394e-05 0 2.0007031222474005e-05 1.2367551353571008e-05 0 1.1700885650671627e-05 1.1048617965396394e-05 0 2.0007031222474005e-05 1.2367551353571008e-05 0 1.0571617421673796e-05 2.2687181647915745e-05 0 1.3464591127245262e-05 7.3906567774735774e-06 0 1.4638209227759183e-05 7.3389643330426588e-06 0 2.0007031222474005e-05 1.2367551353571008e-05 0 1.2788252514466804e-05 5.4028589309719672e-06 0 1.4638209227759183e-05 7.3389643330426588e-06 0 1.1828543508824495e-05 3.3118042089202211e-06 0 1.2788252514466804e-05 5.4028589309719672e-06 0 1.1828543508824495e-05 3.3118042089202211e-06 0 1.1135744110850502e-05 3.331180269561188e-06 0 1.3464591127245262e-05 7.3906567774735774e-06 0 1.2788252514466804e-05 5.4028589309719672e-06 0 1.4638209227759183e-05 7.3389643330426588e-06 0 1.4638209227759183e-05 7.3389643330426588e-06 0 1.1828543508824495e-05 3.3118042089202211e-06 0 1.2522463924971379e-05 9.9610881804175247e-07 0 1.1828543508824495e-05 3.3118042089202211e-06 0 1.0963708457099085e-05 -2.0241247736429338e-06 0 1.2522463924971379e-05 9.9610881804175247e-07 0 1.1828543508824495e-05 3.3118042089202211e-06 0 9.9889468094717195e-06 7.8843236796702462e-07 0 1.0963708457099085e-05 -2.0241247736429338e-06 0 1.1828543508824495e-05 3.3118042089202211e-06 0 9.9889468094717195e-06 7.8843236796702462e-07 0 1.1135744110850502e-05 3.331180269561188e-06 0 1.1135744110850502e-05 3.331180269561188e-06 0 9.9972371899644562e-06 2.5608282526661788e-06 0 1.0830998416735724e-05 3.7268856803736652e-06 0 9.9889468094717195e-06 7.8843236796702462e-07 0 1.1135744110850502e-05 3.331180269561188e-06 0 9.9972371899644562e-06 2.5608282526661788e-06 0 9.9889468094717195e-06 7.8843236796702462e-07 0 9.9972371899644562e-06 2.5608282526661788e-06 0 8.9379314238696383e-06 6.8405238242796933e-07 0 8.8913678299170616e-06 1.8084291161202637e-06 0 9.9972371899644562e-06 2.5608282526661788e-06 0 8.9379314238696383e-06 6.8405238242796933e-07 0 9.3505844866239886e-06 2.5299749077104434e-06 0 8.8913678299170616e-06 1.8084291161202637e-06 0 9.9972371899644562e-06 2.5608282526661788e-06 0 9.3505844866239886e-06 2.5299749077104434e-06 0 9.9972371899644562e-06 2.5608282526661788e-06 0 1.0830998416735724e-05 3.7268856803736652e-06 0 8.8913678299170616e-06 1.8084291161202637e-06 0 7.9044562176127946e-06 5.7258458715818152e-07 0 8.9379314238696383e-06 6.8405238242796933e-07 0 7.6647993232322387e-06 -1.1964250339393572e-06 0 7.9044562176127946e-06 5.7258458715818152e-07 0 8.9379314238696383e-06 6.8405238242796933e-07 0 9.9889468094717195e-06 7.8843236796702462e-07 0 8.5809048673130154e-06 -1.8222846390253652e-06 0 9.6555823055409339e-06 -4.9334747139453908e-06 0 7.6647993232322387e-06 -1.1964250339393572e-06 0 7.6757904725792592e-06 -3.6707791847976068e-06 0 8.5809048673130154e-06 -1.8222846390253652e-06 0 7.6647993232322387e-06 -1.1964250339393572e-06 0 8.9379314238696383e-06 6.8405238242796933e-07 0 8.5809048673130154e-06 -1.8222846390253652e-06 0 9.9889468094717195e-06 7.8843236796702462e-07 0 8.9379314238696383e-06 6.8405238242796933e-07 0 8.5809048673130154e-06 -1.8222846390253652e-06 0 7.6757904725792592e-06 -3.6707791847976068e-06 0 8.5809048673130154e-06 -1.8222846390253652e-06 0 8.4883959046012023e-06 -5.8418944557901833e-06 0 8.5809048673130154e-06 -1.8222846390253652e-06 0 9.6555823055409339e-06 -4.9334747139453908e-06 0 8.4883959046012023e-06 -5.8418944557901833e-06 0 9.6555823055409339e-06 -4.9334747139453908e-06 0 8.4883959046012023e-06 -5.8418944557901833e-06 0 1.0259288566888512e-05 -8.5880773816757349e-06 0 9.6555823055409339e-06 -4.9334747139453908e-06 0 1.0259288566888512e-05 -8.5880773816757349e-06 0 1.1593191713097904e-05 -8.4253342925622053e-06 0 8.4883959046012023e-06 -5.8418944557901833e-06 0 8.9821840500993101e-06 -8.8431615513425565e-06 0 1.0259288566888512e-05 -8.5880773816757349e-06 0 8.9821840500993101e-06 -8.8431615513425565e-06 0 1.0259288566888512e-05 -8.5880773816757349e-06 0 1.1445996374900927e-05 -1.2197342451687965e-05 0 1.0259288566888512e-05 -8.5880773816757349e-06 0 1.1445996374900927e-05 -1.2197342451687965e-05 0 1.1593191713097904e-05 -8.4253342925622053e-06 0 8.9821840500993101e-06 -8.8431615513425565e-06 0 1.1445996374900927e-05 -1.2197342451687965e-05 0 9.4044086880604496e-06 -1.1441911537772558e-05 0 1.5136952128437679e-05 -1.1362468462200733e-05 0 1.6902484857869615e-05 -1.4844117481238137e-05 0 1.4394153991975482e-05 -1.3699546671358982e-05 0 1.1593191713097904e-05 -8.4253342925622053e-06 0 1.5136952128437679e-05 -1.1362468462200733e-05 0 1.4394153991975482e-05 -1.3699546671358982e-05 0 1.1445996374900927e-05 -1.2197342451687965e-05 0 1.1593191713097904e-05 -8.4253342925622053e-06 0 1.4394153991975482e-05 -1.3699546671358982e-05 0 1.1593191713097904e-05 -8.4253342925622053e-06 0 1.2997871994361827e-05 -4.9637147976675194e-06 0 1.5136952128437679e-05 -1.1362468462200733e-05 0 9.9889468094717195e-06 7.8843236796702462e-07 0 9.6555823055409339e-06 -4.9334747139453908e-06 0 1.0963708457099085e-05 -2.0241247736429338e-06 0 1.1593191713097904e-05 -8.4253342925622053e-06 0 1.0963708457099085e-05 -2.0241247736429338e-06 0 1.2997871994361827e-05 -4.9637147976675194e-06 0 9.6555823055409339e-06 -4.9334747139453908e-06 0 1.1593191713097904e-05 -8.4253342925622053e-06 0 1.0963708457099085e-05 -2.0241247736429338e-06 0 1.0963708457099085e-05 -2.0241247736429338e-06 0 1.2522463924971379e-05 9.9610881804175247e-07 0 1.2997871994361827e-05 -4.9637147976675194e-06 0 1.4638209227759183e-05 7.3389643330426588e-06 0 1.2522463924971379e-05 9.9610881804175247e-07 0 1.4852688035876087e-05 8.1098904114020799e-07 0 1.2522463924971379e-05 9.9610881804175247e-07 0 1.4852688035876087e-05 8.1098904114020799e-07 0 1.2997871994361827e-05 -4.9637147976675194e-06 0 1.4638209227759183e-05 7.3389643330426588e-06 0 1.4852688035876087e-05 8.1098904114020799e-07 0 2.0007031222474005e-05 1.2367551353571008e-05 0 1.4852688035876087e-05 8.1098904114020799e-07 0 2.1814246635527839e-05 -4.9228699357637499e-06 0 1.7329032473296892e-05 -8.943692951517848e-06 0 1.4852688035876087e-05 8.1098904114020799e-07 0 1.2997871994361827e-05 -4.9637147976675194e-06 0 1.7329032473296892e-05 -8.943692951517848e-06 0 2.0007031222474005e-05 1.2367551353571008e-05 0 1.5693390388134583e-05 3.9163574619710142e-05 0 1.0571617421673796e-05 2.2687181647915745e-05 0 1.4852688035876087e-05 8.1098904114020799e-07 0 2.0007031222474005e-05 1.2367551353571008e-05 0 2.1814246635527839e-05 -4.9228699357637499e-06 0 7.8717090477305378e-06 9.3209637317805604e-06 0 2.9424483207819862e-05 1.8429748112158393e-05 0 2.0007031222474005e-05 1.2367551353571008e-05 0 2.9007808325793682e-05 3.8098922714513127e-05 0 1.5693390388134583e-05 3.9163574619710142e-05 0 1.5693390388134583e-05 3.9163574619710142e-05 0 3.3128321824945503e-05 5.6083972890711113e-05 0 1.4850201532706708e-05 5.4251072363323734e-05 0 2.9424483207819862e-05 1.8429748112158393e-05 0 2.671144683280364e-05 2.2028337684680894e-05 0 2.1814246635527839e-05 -4.9228699357637499e-06 0 2.1679926361867e-05 -1.1224331480788052e-05 0 1.7329032473296892e-05 -8.943692951517848e-06 0 2.9007808325793682e-05 3.8098922714513127e-05 0 1.5693390388134583e-05 3.9163574619710142e-05 0 3.3128321824945503e-05 5.6083972890711113e-05 0 2.671144683280364e-05 2.2028337684680894e-05 0 2.9341569582144439e-05 2.9020473397981399e-05 0 2.1679926361867e-05 -1.1224331480788052e-05 0 1.9068592002326285e-05 -1.3824116289575744e-05 0 2.1651028565984783e-05 -1.4630673825402865e-05 0 3.3128321824945503e-05 5.6083972890711113e-05 0 2.4751164408927753e-05 6.674137411212274e-05 0 1.4850201532706708e-05 5.4251072363323734e-05 0 1.2997871994361827e-05 -4.9637147976675194e-06 0 1.7329032473296892e-05 -8.943692951517848e-06 0 1.5136952128437679e-05 -1.1362468462200733e-05 0 2.1679926361867e-05 -1.1224331480788052e-05 0 1.7329032473296892e-05 -8.943692951517848e-06 0 1.9068592002326285e-05 -1.3824116289575744e-05 0 1.7329032473296892e-05 -8.943692951517848e-06 0 1.9068592002326285e-05 -1.3824116289575744e-05 0 1.5136952128437679e-05 -1.1362468462200733e-05 0 1.9068592002326285e-05 -1.3824116289575744e-05 0 1.5136952128437679e-05 -1.1362468462200733e-05 0 1.6902484857869615e-05 -1.4844117481238137e-05 0 1.9068592002326285e-05 -1.3824116289575744e-05 0 1.6902484857869615e-05 -1.4844117481238137e-05 0 1.9584609203026672e-05 -1.6872371976028708e-05 0 1.9068592002326285e-05 -1.3824116289575744e-05 0 1.9584609203026672e-05 -1.6872371976028708e-05 0 2.1651028565984783e-05 -1.4630673825402865e-05 0 1.9584609203026672e-05 -1.6872371976028708e-05 0 2.1651028565984783e-05 -1.4630673825402865e-05 0 2.2137251110219449e-05 -1.6667393602390594e-05 0 1.6902484857869615e-05 -1.4844117481238137e-05 0 1.9584609203026672e-05 -1.6872371976028708e-05 0 1.7000463488225433e-05 -1.6775742367010239e-05 0 2.4751164408927753e-05 6.674137411212274e-05 0 2.7155273599839541e-05 7.7189216212572906e-05 0 1.4234515035505236e-05 7.1487818226891476e-05 0 2.4751164408927753e-05 6.674137411212274e-05 0 3.621523696737248e-05 7.2095156464261977e-05 0 2.7155273599839541e-05 7.7189216212572906e-05 0 3.3128321824945503e-05 5.6083972890711113e-05 0 2.4751164408927753e-05 6.674137411212274e-05 0 3.621523696737248e-05 7.2095156464261977e-05 0 2.9341569582144439e-05 2.9020473397981399e-05 0 3.0473602903958032e-05 3.5588221012100716e-05 0 3.621523696737248e-05 7.2095156464261977e-05 0 2.7155273599839541e-05 7.7189216212572906e-05 0 3.8723669129999925e-05 8.8016482587821693e-05 0 2.7155273599839541e-05 7.7189216212572906e-05 0 3.8723669129999925e-05 8.8016482587821693e-05 0 2.2076792757471017e-05 8.6145530510858329e-05 0 3.8723669129999925e-05 8.8016482587821693e-05 0 2.7511944760075088e-05 9.6930027998249954e-05 0 2.2076792757471017e-05 8.6145530510858329e-05 0 3.8723669129999925e-05 8.8016482587821693e-05 0 4.0998688294946174e-05 0.00010383229474180131 0 2.7511944760075088e-05 9.6930027998249954e-05 0 2.2137251110219449e-05 -1.6667393602390594e-05 0 2.2861740856794369e-05 -1.7990490580880578e-05 0 2.1160853547113076e-05 -1.8511992456590813e-05 0 3.0473602903958032e-05 3.5588221012100716e-05 0 3.1978392773578457e-05 4.2841742681194076e-05 0 4.0998688294946174e-05 0.00010383229474180131 0 2.7511944760075088e-05 9.6930027998249954e-05 0 2.4781215179600065e-05 0.00010788483110343503 0 1.9584609203026672e-05 -1.6872371976028708e-05 0 1.9032250845571691e-05 -1.8566231813947044e-05 0 2.1160853547113076e-05 -1.8511992456590813e-05 0 1.9584609203026672e-05 -1.6872371976028708e-05 0 1.9032250845571691e-05 -1.8566231813947044e-05 0 1.7000463488225433e-05 -1.6775742367010239e-05 0 1.9584609203026672e-05 -1.6872371976028708e-05 0 2.2137251110219449e-05 -1.6667393602390594e-05 0 2.1160853547113076e-05 -1.8511992456590813e-05 0 1.9032250845571691e-05 -1.8566231813947044e-05 0 2.1160853547113076e-05 -1.8511992456590813e-05 0 1.970851071376325e-05 -1.9846598693887624e-05 0 2.1160853547113076e-05 -1.8511992456590813e-05 0 1.970851071376325e-05 -1.9846598693887624e-05 0 2.2181049867379079e-05 -1.9932123633330839e-05 0 1.9032250845571691e-05 -1.8566231813947044e-05 0 1.970851071376325e-05 -1.9846598693887624e-05 0 1.6415512846799198e-05 -1.8463560779011737e-05 0 1.970851071376325e-05 -1.9846598693887624e-05 0 1.6415512846799198e-05 -1.8463560779011737e-05 0 1.8531134417610851e-05 -2.0573000208808076e-05 0 1.9032250845571691e-05 -1.8566231813947044e-05 0 1.6415512846799198e-05 -1.8463560779011737e-05 0 1.7000463488225433e-05 -1.6775742367010239e-05 0 1.6415512846799198e-05 -1.8463560779011737e-05 0 1.2878424392366192e-05 -1.5688113469750817e-05 0 1.4740861964457346e-05 -1.6137496685082455e-05 0 1.6415512846799198e-05 -1.8463560779011737e-05 0 1.7000463488225433e-05 -1.6775742367010239e-05 0 1.4740861964457346e-05 -1.6137496685082455e-05 0 1.6415512846799198e-05 -1.8463560779011737e-05 0 1.3488996892598016e-05 -1.7591720727287233e-05 0 1.5911344669657534e-05 -2.0195118039330113e-05 0 1.3488996892598016e-05 -1.7591720727287233e-05 0 1.5911344669657534e-05 -2.0195118039330113e-05 0 1.265457019969557e-05 -1.8310130054771317e-05 0 1.3488996892598016e-05 -1.7591720727287233e-05 0 1.2878424392366192e-05 -1.5688113469750817e-05 0 1.1289996674599527e-05 -1.6025158186976542e-05 0 1.6415512846799198e-05 -1.8463560779011737e-05 0 1.3488996892598016e-05 -1.7591720727287233e-05 0 1.2878424392366192e-05 -1.5688113469750817e-05 0 1.1445996374900927e-05 -1.2197342451687965e-05 0 1.2878424392366192e-05 -1.5688113469750817e-05 0 1.4740861964457346e-05 -1.6137496685082455e-05 0 1.2878424392366192e-05 -1.5688113469750817e-05 0 1.0867377183184476e-05 -1.3922210298082457e-05 0 1.1289996674599527e-05 -1.6025158186976542e-05 0 1.1445996374900927e-05 -1.2197342451687965e-05 0 1.2878424392366192e-05 -1.5688113469750817e-05 0 1.0867377183184476e-05 -1.3922210298082457e-05 0 1.1445996374900927e-05 -1.2197342451687965e-05 0 9.4044086880604496e-06 -1.1441911537772558e-05 0 1.0867377183184476e-05 -1.3922210298082457e-05 0 1.1445996374900927e-05 -1.2197342451687965e-05 0 1.4394153991975482e-05 -1.3699546671358982e-05 0 1.4740861964457346e-05 -1.6137496685082455e-05 0 1.6902484857869615e-05 -1.4844117481238137e-05 0 1.4394153991975482e-05 -1.3699546671358982e-05 0 1.7000463488225433e-05 -1.6775742367010239e-05 0 1.4394153991975482e-05 -1.3699546671358982e-05 0 1.7000463488225433e-05 -1.6775742367010239e-05 0 1.4740861964457346e-05 -1.6137496685082455e-05 0 -4.4708395946846585e-05 5.7319246495153727e-05 0 -3.2360613850639605e-05 6.2639919377799797e-05 0 -3.3068675310386281e-05 4.8840858292742102e-05 0 -4.4708395946846585e-05 5.7319246495153727e-05 0 -3.2360613850639605e-05 6.2639919377799797e-05 0 -4.7483693163222343e-05 7.2563706487345801e-05 0 -3.2360613850639605e-05 6.2639919377799797e-05 0 -3.3068675310386281e-05 4.8840858292742102e-05 0 -2.3142255762278553e-05 4.9000629224682549e-05 0 -4.4708395946846585e-05 5.7319246495153727e-05 0 -3.3068675310386281e-05 4.8840858292742102e-05 0 -4.0745339081646222e-05 4.3150115176496119e-05 0 -4.0745339081646222e-05 4.3150115176496119e-05 0 -3.6376936855683416e-05 3.0916050887837462e-05 0 -2.4987165961965226e-05 3.4103953293393404e-05 0 -3.3068675310386281e-05 4.8840858292742102e-05 0 -2.4987165961965226e-05 3.4103953293393404e-05 0 -2.3142255762278553e-05 4.9000629224682549e-05 0 -3.3068675310386281e-05 4.8840858292742102e-05 0 -4.0745339081646222e-05 4.3150115176496119e-05 0 -2.4987165961965226e-05 3.4103953293393404e-05 0 -2.4987165961965226e-05 3.4103953293393404e-05 0 -1.5945750779166461e-05 4.0278183495100756e-05 0 -2.3142255762278553e-05 4.9000629224682549e-05 0 -2.4987165961965226e-05 3.4103953293393404e-05 0 -1.1996168985835053e-05 2.7699407589628332e-05 0 -1.5945750779166461e-05 4.0278183495100756e-05 0 -1.5945750779166461e-05 4.0278183495100756e-05 0 -1.4826154662075973e-05 5.0343844313469409e-05 0 -7.1751983353592647e-06 4.2427791735349637e-05 0 -1.5945750779166461e-05 4.0278183495100756e-05 0 -1.4826154662075973e-05 5.0343844313469409e-05 0 -2.3142255762278553e-05 4.9000629224682549e-05 0 -1.4826154662075973e-05 5.0343844313469409e-05 0 -2.3142255762278553e-05 4.9000629224682549e-05 0 -1.9504463227622522e-05 6.1568217132821886e-05 0 -3.2360613850639605e-05 6.2639919377799797e-05 0 -2.3142255762278553e-05 4.9000629224682549e-05 0 -1.9504463227622522e-05 6.1568217132821886e-05 0 -1.4826154662075973e-05 5.0343844313469409e-05 0 -1.9504463227622522e-05 6.1568217132821886e-05 0 -8.1843624033067369e-06 5.9704533869351562e-05 0 -8.1843624033067369e-06 5.9704533869351562e-05 0 2.993283647268921e-06 5.6248132720959861e-05 0 1.0969705629258809e-07 7.1781576236364867e-05 0 -8.1843624033067369e-06 5.9704533869351562e-05 0 -7.1751983353592647e-06 4.2427791735349637e-05 0 2.993283647268921e-06 5.6248132720959861e-05 0 -7.1751983353592647e-06 4.2427791735349637e-05 0 4.4279792179066413e-06 3.7897960745078227e-05 0 2.993283647268921e-06 5.6248132720959861e-05 0 -1.4826154662075973e-05 5.0343844313469409e-05 0 -8.1843624033067369e-06 5.9704533869351562e-05 0 -7.1751983353592647e-06 4.2427791735349637e-05 0 -1.1996168985835053e-05 2.7699407589628332e-05 0 -1.5945750779166461e-05 4.0278183495100756e-05 0 -7.1751983353592647e-06 4.2427791735349637e-05 0 -1.1996168985835053e-05 2.7699407589628332e-05 0 -7.1751983353592647e-06 4.2427791735349637e-05 0 -2.5114250305203998e-06 2.6912200225292437e-05 0 -7.1751983353592647e-06 4.2427791735349637e-05 0 -2.5114250305203998e-06 2.6912200225292437e-05 0 4.4279792179066413e-06 3.7897960745078227e-05 0 -2.5114250305203998e-06 2.6912200225292437e-05 0 4.4279792179066413e-06 3.7897960745078227e-05 0 4.3492897117280304e-06 2.5211050199235126e-05 0 4.4279792179066413e-06 3.7897960745078227e-05 0 4.3492897117280304e-06 2.5211050199235126e-05 0 1.0571617421673796e-05 2.2687181647915745e-05 0 1.5693390388134583e-05 3.9163574619710142e-05 0 4.4279792179066413e-06 3.7897960745078227e-05 0 1.0571617421673796e-05 2.2687181647915745e-05 0 1.5693390388134583e-05 3.9163574619710142e-05 0 4.4279792179066413e-06 3.7897960745078227e-05 0 1.4850201532706708e-05 5.4251072363323734e-05 0 4.4279792179066413e-06 3.7897960745078227e-05 0 2.993283647268921e-06 5.6248132720959861e-05 0 1.4850201532706708e-05 5.4251072363323734e-05 0 2.993283647268921e-06 5.6248132720959861e-05 0 1.4850201532706708e-05 5.4251072363323734e-05 0 1.4234515035505236e-05 7.1487818226891476e-05 0 2.4751164408927753e-05 6.674137411212274e-05 0 1.4850201532706708e-05 5.4251072363323734e-05 0 1.4234515035505236e-05 7.1487818226891476e-05 0 2.993283647268921e-06 5.6248132720959861e-05 0 1.4234515035505236e-05 7.1487818226891476e-05 0 1.0969705629258809e-07 7.1781576236364867e-05 0 1.4234515035505236e-05 7.1487818226891476e-05 0 8.6907478716169265e-06 8.2058374311814135e-05 0 1.0969705629258809e-07 7.1781576236364867e-05 0 1.4234515035505236e-05 7.1487818226891476e-05 0 8.6907478716169265e-06 8.2058374311814135e-05 0 2.2076792757471017e-05 8.6145530510858329e-05 0 2.7155273599839541e-05 7.7189216212572906e-05 0 1.4234515035505236e-05 7.1487818226891476e-05 0 2.2076792757471017e-05 8.6145530510858329e-05 0 2.7511944760075088e-05 9.6930027998249954e-05 0 2.2076792757471017e-05 8.6145530510858329e-05 0 1.1262497783083633e-05 9.6938008597773575e-05 0 2.7511944760075088e-05 9.6930027998249954e-05 0 1.1262497783083633e-05 9.6938008597773575e-05 0 2.4781215179600065e-05 0.00010788483110343503 0 8.6907478716169265e-06 8.2058374311814135e-05 0 2.2076792757471017e-05 8.6145530510858329e-05 0 1.1262497783083633e-05 9.6938008597773575e-05 0 8.6907478716169265e-06 8.2058374311814135e-05 0 1.1262497783083633e-05 9.6938008597773575e-05 0 -3.892224038350459e-06 8.3849536724604217e-05 0 1.1262497783083633e-05 9.6938008597773575e-05 0 -5.841701672375668e-06 9.7824234223332289e-05 0 -3.892224038350459e-06 8.3849536724604217e-05 0 1.1262497783083633e-05 9.6938008597773575e-05 0 -5.841701672375668e-06 9.7824234223332289e-05 0 -1.8224711024349198e-06 0.00011135588911296447 0 -5.841701672375668e-06 9.7824234223332289e-05 0 -3.892224038350459e-06 8.3849536724604217e-05 0 -1.7447203957257686e-05 9.6410705681230336e-05 0 -3.892224038350459e-06 8.3849536724604217e-05 0 -1.3802892917342324e-05 7.6166081125186622e-05 0 -1.7447203957257686e-05 9.6410705681230336e-05 0 -3.892224038350459e-06 8.3849536724604217e-05 0 1.0969705629258809e-07 7.1781576236364867e-05 0 -1.3802892917342324e-05 7.6166081125186622e-05 0 8.6907478716169265e-06 8.2058374311814135e-05 0 -3.892224038350459e-06 8.3849536724604217e-05 0 1.0969705629258809e-07 7.1781576236364867e-05 0 -8.1843624033067369e-06 5.9704533869351562e-05 0 1.0969705629258809e-07 7.1781576236364867e-05 0 -1.3802892917342324e-05 7.6166081125186622e-05 0 -1.9504463227622522e-05 6.1568217132821886e-05 0 -8.1843624033067369e-06 5.9704533869351562e-05 0 -1.3802892917342324e-05 7.6166081125186622e-05 0 -1.9504463227622522e-05 6.1568217132821886e-05 0 -2.5183568009396824e-05 7.3323682205946752e-05 0 -1.3802892917342324e-05 7.6166081125186622e-05 0 -3.2360613850639605e-05 6.2639919377799797e-05 0 -1.9504463227622522e-05 6.1568217132821886e-05 0 -2.5183568009396824e-05 7.3323682205946752e-05 0 -2.5183568009396824e-05 7.3323682205946752e-05 0 -2.5278318691825456e-05 8.4700388414833864e-05 0 -3.6229354510876643e-05 8.1739394731434264e-05 0 -2.5183568009396824e-05 7.3323682205946752e-05 0 -1.3802892917342324e-05 7.6166081125186622e-05 0 -2.5278318691825456e-05 8.4700388414833864e-05 0 -1.3802892917342324e-05 7.6166081125186622e-05 0 -1.7447203957257686e-05 9.6410705681230336e-05 0 -2.5278318691825456e-05 8.4700388414833864e-05 0 -5.841701672375668e-06 9.7824234223332289e-05 0 -1.7447203957257686e-05 9.6410705681230336e-05 0 -1.5674532539798418e-05 0.00011116172149871893 0 -1.7447203957257686e-05 9.6410705681230336e-05 0 -3.4260453227162913e-05 9.6515161354256379e-05 0 -2.6533790561505164e-05 0.00010723317055766415 0 -1.7447203957257686e-05 9.6410705681230336e-05 0 -2.5278318691825456e-05 8.4700388414833864e-05 0 -3.4260453227162913e-05 9.6515161354256379e-05 0 -2.5278318691825456e-05 8.4700388414833864e-05 0 -3.4260453227162913e-05 9.6515161354256379e-05 0 -3.6229354510876643e-05 8.1739394731434264e-05 0 -3.4260453227162913e-05 9.6515161354256379e-05 0 -4.9503997976288702e-05 8.8715724051883113e-05 0 -5.0760117550742064e-05 0.00010520098538514991 0 -3.4260453227162913e-05 9.6515161354256379e-05 0 -5.0760117550742064e-05 0.00010520098538514991 0 -3.787328554601667e-05 0.0001118924411438819 0 -3.4260453227162913e-05 9.6515161354256379e-05 0 -4.9503997976288702e-05 8.8715724051883113e-05 0 -3.6229354510876643e-05 8.1739394731434264e-05 0 -4.9503997976288702e-05 8.8715724051883113e-05 0 -3.6229354510876643e-05 8.1739394731434264e-05 0 -4.7483693163222343e-05 7.2563706487345801e-05 0 -3.2360613850639605e-05 6.2639919377799797e-05 0 -2.5183568009396824e-05 7.3323682205946752e-05 0 -3.6229354510876643e-05 8.1739394731434264e-05 0 -3.2360613850639605e-05 6.2639919377799797e-05 0 -3.6229354510876643e-05 8.1739394731434264e-05 0 -4.7483693163222343e-05 7.2563706487345801e-05 0 -5.2155527861649422e-05 0.00013888638537586575 0 -3.0643581549051887e-05 0.00013929512074086013 0 -3.6828631151129678e-05 0.00015557357077250426 0 -5.2155527861649422e-05 0.00013888638537586575 0 -3.9596100346641761e-05 0.00012679540854807045 0 -3.0643581549051887e-05 0.00013929512074086013 0 -3.9596100346641761e-05 0.00012679540854807045 0 -2.7621802485443116e-05 0.0001205820111682907 0 -3.0643581549051887e-05 0.00013929512074086013 0 -5.2155527861649422e-05 0.00013888638537586575 0 -3.9596100346641761e-05 0.00012679540854807045 0 -5.1624637719767915e-05 0.00012193737466046443 0 -3.9596100346641761e-05 0.00012679540854807045 0 -5.1624637719767915e-05 0.00012193737466046443 0 -3.787328554601667e-05 0.0001118924411438819 0 -5.1624637719767915e-05 0.00012193737466046443 0 -5.0760117550742064e-05 0.00010520098538514991 0 -3.787328554601667e-05 0.0001118924411438819 0 -3.4260453227162913e-05 9.6515161354256379e-05 0 -3.787328554601667e-05 0.0001118924411438819 0 -2.6533790561505164e-05 0.00010723317055766415 0 -3.9596100346641761e-05 0.00012679540854807045 0 -3.787328554601667e-05 0.0001118924411438819 0 -2.7621802485443116e-05 0.0001205820111682907 0 -2.7621802485443116e-05 0.0001205820111682907 0 -2.6533790561505164e-05 0.00010723317055766415 0 -1.5674532539798418e-05 0.00011116172149871893 0 -3.787328554601667e-05 0.0001118924411438819 0 -2.7621802485443116e-05 0.0001205820111682907 0 -2.6533790561505164e-05 0.00010723317055766415 0 -1.7447203957257686e-05 9.6410705681230336e-05 0 -2.6533790561505164e-05 0.00010723317055766415 0 -1.5674532539798418e-05 0.00011116172149871893 0 -2.7621802485443116e-05 0.0001205820111682907 0 -1.5674532539798418e-05 0.00011116172149871893 0 -1.5277152886438914e-05 0.00012558043578342372 0 -1.5277152886438914e-05 0.00012558043578342372 0 -3.0643581549051887e-05 0.00013929512074086013 0 -1.4027759272291998e-05 0.00014072543650537285 0 -2.7621802485443116e-05 0.0001205820111682907 0 -1.5277152886438914e-05 0.00012558043578342372 0 -3.0643581549051887e-05 0.00013929512074086013 0 -3.0643581549051887e-05 0.00013929512074086013 0 -1.4027759272291998e-05 0.00014072543650537285 0 -2.0145637970255208e-05 0.00015724703270513548 0 -1.4027759272291998e-05 0.00014072543650537285 0 -2.9309344652190988e-06 0.00013089515619548074 0 -1.2669347732015463e-06 0.00014916698997360811 0 -2.9309344652190988e-06 0.00013089515619548074 0 1.0806778439164467e-05 0.00013763784878866747 0 -1.2669347732015463e-06 0.00014916698997360811 0 -2.9309344652190988e-06 0.00013089515619548074 0 7.2530411353495329e-06 0.00012194925145503132 0 1.0806778439164467e-05 0.00013763784878866747 0 -1.5277152886438914e-05 0.00012558043578342372 0 -1.4027759272291998e-05 0.00014072543650537285 0 -2.9309344652190988e-06 0.00013089515619548074 0 -1.5674532539798418e-05 0.00011116172149871893 0 -1.5277152886438914e-05 0.00012558043578342372 0 -1.8224711024349198e-06 0.00011135588911296447 0 -1.5277152886438914e-05 0.00012558043578342372 0 -2.9309344652190988e-06 0.00013089515619548074 0 -1.8224711024349198e-06 0.00011135588911296447 0 -5.841701672375668e-06 9.7824234223332289e-05 0 -1.5674532539798418e-05 0.00011116172149871893 0 -1.8224711024349198e-06 0.00011135588911296447 0 -1.8224711024349198e-06 0.00011135588911296447 0 7.2530411353495329e-06 0.00012194925145503132 0 1.2288580230606446e-05 0.00011218853023618505 0 -2.9309344652190988e-06 0.00013089515619548074 0 -1.8224711024349198e-06 0.00011135588911296447 0 7.2530411353495329e-06 0.00012194925145503132 0 7.2530411353495329e-06 0.00012194925145503132 0 1.2288580230606446e-05 0.00011218853023618505 0 2.0055208151035023e-05 0.00012230143903205405 0 1.1262497783083633e-05 9.6938008597773575e-05 0 1.2288580230606446e-05 0.00011218853023618505 0 2.4781215179600065e-05 0.00010788483110343503 0 1.1262497783083633e-05 9.6938008597773575e-05 0 -1.8224711024349198e-06 0.00011135588911296447 0 1.2288580230606446e-05 0.00011218853023618505 0 1.2288580230606446e-05 0.00011218853023618505 0 2.4781215179600065e-05 0.00010788483110343503 0 2.0055208151035023e-05 0.00012230143903205405 0 2.4781215179600065e-05 0.00010788483110343503 0 2.0055208151035023e-05 0.00012230143903205405 0 3.241578692659748e-05 0.00011637572065625164 0 2.0055208151035023e-05 0.00012230143903205405 0 1.0806778439164467e-05 0.00013763784878866747 0 2.6412706149324409e-05 0.00013967212019229828 0 2.0055208151035023e-05 0.00012230143903205405 0 2.6412706149324409e-05 0.00013967212019229828 0 3.2761425996648215e-05 0.00012712133175937543 0 7.2530411353495329e-06 0.00012194925145503132 0 2.0055208151035023e-05 0.00012230143903205405 0 1.0806778439164467e-05 0.00013763784878866747 0 1.0806778439164467e-05 0.00013763784878866747 0 2.6412706149324409e-05 0.00013967212019229828 0 1.6224935325626906e-05 0.00015636177268695597 0 2.6412706149324409e-05 0.00013967212019229828 0 1.6224935325626906e-05 0.00015636177268695597 0 3.2954172045014875e-05 0.00015427770688308017 0 1.6224935325626906e-05 0.00015636177268695597 0 3.1162465771084947e-05 0.00016957342925049036 0 1.4545824643436989e-05 0.00017401146268156061 0 1.6224935325626906e-05 0.00015636177268695597 0 3.1162465771084947e-05 0.00016957342925049036 0 3.2954172045014875e-05 0.00015427770688308017 0 3.1162465771084947e-05 0.00016957342925049036 0 2.5513660754998626e-05 0.0001807165565340162 0 1.4545824643436989e-05 0.00017401146268156061 0 3.1162465771084947e-05 0.00016957342925049036 0 2.5513660754998626e-05 0.0001807165565340162 0 4.0370349331818817e-05 0.00017830955102449172 0 2.5513660754998626e-05 0.0001807165565340162 0 4.0370349331818817e-05 0.00017830955102449172 0 3.5739718402566728e-05 0.00018933733349750178 0 2.5513660754998626e-05 0.0001807165565340162 0 1.704448729853228e-05 0.00019042241456489499 0 3.5739718402566728e-05 0.00018933733349750178 0 2.5513660754998626e-05 0.0001807165565340162 0 1.704448729853228e-05 0.00019042241456489499 0 1.4545824643436989e-05 0.00017401146268156061 0 -9.1008606054732476e-07 0.00019058118394633884 0 -1.6151314930793865e-06 0.00016840541214400943 0 -1.710869074075901e-05 0.00017448141393378749 0 1.4545824643436989e-05 0.00017401146268156061 0 -9.1008606054732476e-07 0.00019058118394633884 0 -1.6151314930793865e-06 0.00016840541214400943 0 1.704448729853228e-05 0.00019042241456489499 0 1.4545824643436989e-05 0.00017401146268156061 0 -9.1008606054732476e-07 0.00019058118394633884 0 -1.6151314930793865e-06 0.00016840541214400943 0 -1.2669347732015463e-06 0.00014916698997360811 0 -2.0145637970255208e-05 0.00015724703270513548 0 1.6224935325626906e-05 0.00015636177268695597 0 1.4545824643436989e-05 0.00017401146268156061 0 -1.6151314930793865e-06 0.00016840541214400943 0 1.6224935325626906e-05 0.00015636177268695597 0 -1.6151314930793865e-06 0.00016840541214400943 0 -1.2669347732015463e-06 0.00014916698997360811 0 1.0806778439164467e-05 0.00013763784878866747 0 1.6224935325626906e-05 0.00015636177268695597 0 -1.2669347732015463e-06 0.00014916698997360811 0 -1.4027759272291998e-05 0.00014072543650537285 0 -1.2669347732015463e-06 0.00014916698997360811 0 -2.0145637970255208e-05 0.00015724703270513548 0 -3.0643581549051887e-05 0.00013929512074086013 0 -2.0145637970255208e-05 0.00015724703270513548 0 -3.6828631151129678e-05 0.00015557357077250426 0 -2.0145637970255208e-05 0.00015724703270513548 0 -1.710869074075901e-05 0.00017448141393378749 0 -3.3475200690299151e-05 0.00017108287572573805 0 -2.0145637970255208e-05 0.00015724703270513548 0 -3.3475200690299151e-05 0.00017108287572573805 0 -3.6828631151129678e-05 0.00015557357077250426 0 -1.6151314930793865e-06 0.00016840541214400943 0 -2.0145637970255208e-05 0.00015724703270513548 0 -1.710869074075901e-05 0.00017448141393378749 0 -9.1008606054732476e-07 0.00019058118394633884 0 -1.710869074075901e-05 0.00017448141393378749 0 -1.8246015618551094e-05 0.00019051459132137129 0 -1.8246015618551094e-05 0.00019051459132137129 0 -2.6949183972129118e-05 0.00018157429071496357 0 -3.544201960074019e-05 0.000190408020843863 0 -1.710869074075901e-05 0.00017448141393378749 0 -1.8246015618551094e-05 0.00019051459132137129 0 -2.6949183972129118e-05 0.00018157429071496357 0 -1.710869074075901e-05 0.00017448141393378749 0 -2.6949183972129118e-05 0.00018157429071496357 0 -3.3475200690299151e-05 0.00017108287572573805 0 -2.6949183972129118e-05 0.00018157429071496357 0 -3.3475200690299151e-05 0.00017108287572573805 0 -4.1172453682071211e-05 0.00018065994778684164 0 -2.6949183972129118e-05 0.00018157429071496357 0 -4.1172453682071211e-05 0.00018065994778684164 0 -3.544201960074019e-05 0.000190408020843863 0 -4.1172453682071211e-05 0.00018065994778684164 0 -3.544201960074019e-05 0.000190408020843863 0 -5.2560971140121558e-05 0.00019042308702352283 0 -4.1172453682071211e-05 0.00018065994778684164 0 -5.2560971140121558e-05 0.00019042308702352283 0 -5.2569694673171218e-05 0.00017323756184860865 0 -3.3475200690299151e-05 0.00017108287572573805 0 -4.1172453682071211e-05 0.00018065994778684164 0 -5.2569694673171218e-05 0.00017323756184860865 0 -5.2569694673171218e-05 0.00017323756184860865 0 -3.6828631151129678e-05 0.00015557357077250426 0 -5.2447162915138283e-05 0.00015605376135214698 0 -3.3475200690299151e-05 0.00017108287572573805 0 -5.2569694673171218e-05 0.00017323756184860865 0 -3.6828631151129678e-05 0.00015557357077250426 0 -5.2155527861649422e-05 0.00013888638537586575 0 -3.6828631151129678e-05 0.00015557357077250426 0 -5.2447162915138283e-05 0.00015605376135214698 0 1.9636998505251419e-05 -2.1883088271590155e-05 0 1.9514294557588698e-05 -2.3443987676636192e-05 0 1.7464046206198702e-05 -2.2120383888467552e-05 0 1.9636998505251419e-05 -2.1883088271590155e-05 0 2.2120377924395241e-05 -2.3333184665701427e-05 0 2.2282837612726799e-05 -2.2121789914515404e-05 0 1.9636998505251419e-05 -2.1883088271590155e-05 0 2.1032397377698046e-05 -2.1211893471887164e-05 0 2.2282837612726799e-05 -2.2121789914515404e-05 0 1.9636998505251419e-05 -2.1883088271590155e-05 0 2.2120377924395241e-05 -2.3333184665701427e-05 0 1.9514294557588698e-05 -2.3443987676636192e-05 0 1.9514294557588698e-05 -2.3443987676636192e-05 0 1.6579745175805093e-05 -2.3241293354439031e-05 0 1.7464046206198702e-05 -2.2120383888467552e-05 0 1.6579745175805093e-05 -2.3241293354439031e-05 0 1.5209762272563656e-05 -2.1430602221113421e-05 0 1.7464046206198702e-05 -2.2120383888467552e-05 0 1.6579745175805093e-05 -2.3241293354439031e-05 0 1.5209762272563656e-05 -2.1430602221113421e-05 0 1.4666518753846508e-05 -2.2340276662512123e-05 0 1.5209762272563656e-05 -2.1430602221113421e-05 0 1.7464046206198702e-05 -2.2120383888467552e-05 0 1.5911344669657534e-05 -2.0195118039330113e-05 0 1.5209762272563656e-05 -2.1430602221113421e-05 0 1.5911344669657534e-05 -2.0195118039330113e-05 0 1.3876642839711644e-05 -2.005316266439968e-05 0 1.5911344669657534e-05 -2.0195118039330113e-05 0 1.3876642839711644e-05 -2.005316266439968e-05 0 1.265457019969557e-05 -1.8310130054771317e-05 0 1.6415512846799198e-05 -1.8463560779011737e-05 0 1.5911344669657534e-05 -2.0195118039330113e-05 0 1.8531134417610851e-05 -2.0573000208808076e-05 0 1.9636998505251419e-05 -2.1883088271590155e-05 0 1.5911344669657534e-05 -2.0195118039330113e-05 0 1.8531134417610851e-05 -2.0573000208808076e-05 0 1.9636998505251419e-05 -2.1883088271590155e-05 0 1.7464046206198702e-05 -2.2120383888467552e-05 0 1.5911344669657534e-05 -2.0195118039330113e-05 0 1.9636998505251419e-05 -2.1883088271590155e-05 0 1.8531134417610851e-05 -2.0573000208808076e-05 0 2.1032397377698046e-05 -2.1211893471887164e-05 0 1.970851071376325e-05 -1.9846598693887624e-05 0 1.8531134417610851e-05 -2.0573000208808076e-05 0 2.1032397377698046e-05 -2.1211893471887164e-05 0 1.970851071376325e-05 -1.9846598693887624e-05 0 2.2181049867379079e-05 -1.9932123633330839e-05 0 2.1032397377698046e-05 -2.1211893471887164e-05 0 2.2861740856794369e-05 -1.7990490580880578e-05 0 2.1160853547113076e-05 -1.8511992456590813e-05 0 2.2181049867379079e-05 -1.9932123633330839e-05 0 2.2181049867379079e-05 -1.9932123633330839e-05 0 2.4108079742854417e-05 -1.8968175059336282e-05 0 2.371728494988765e-05 -2.0932127976750388e-05 0 2.2181049867379079e-05 -1.9932123633330839e-05 0 2.1032397377698046e-05 -2.1211893471887164e-05 0 2.371728494988765e-05 -2.0932127976750388e-05 0 4.0998688294946174e-05 0.00010383229474180131 0 2.4781215179600065e-05 0.00010788483110343503 0 3.241578692659748e-05 0.00011637572065625164 0 4.0998688294946174e-05 0.00010383229474180131 0 4.3154165229264597e-05 0.00011958110220278006 0 3.241578692659748e-05 0.00011637572065625164 0 2.2861740856794369e-05 -1.7990490580880578e-05 0 2.2181049867379079e-05 -1.9932123633330839e-05 0 2.4108079742854417e-05 -1.8968175059336282e-05 0 3.1978392773578457e-05 4.2841742681194076e-05 0 3.3715402561385944e-05 5.0556244731353714e-05 0 2.0055208151035023e-05 0.00012230143903205405 0 3.241578692659748e-05 0.00011637572065625164 0 3.2761425996648215e-05 0.00012712133175937543 0 4.3154165229264597e-05 0.00011958110220278006 0 3.241578692659748e-05 0.00011637572065625164 0 3.2761425996648215e-05 0.00012712133175937543 0 2.6412706149324409e-05 0.00013967212019229828 0 3.2761425996648215e-05 0.00012712133175937543 0 4.5426797100597057e-05 0.00013575946226565013 0 3.3715402561385944e-05 5.0556244731353714e-05 0 3.5340359500187286e-05 5.7444334500121803e-05 0 2.4108079742854417e-05 -1.8968175059336282e-05 0 2.5873665262953691e-05 -1.9924759821376391e-05 0 2.371728494988765e-05 -2.0932127976750388e-05 0 4.3154165229264597e-05 0.00011958110220278006 0 3.2761425996648215e-05 0.00012712133175937543 0 4.5426797100597057e-05 0.00013575946226565013 0 3.5340359500187286e-05 5.7444334500121803e-05 0 3.9088199126711738e-05 6.6066297965357195e-05 0 2.6412706149324409e-05 0.00013967212019229828 0 4.5426797100597057e-05 0.00013575946226565013 0 3.2954172045014875e-05 0.00015427770688308017 0 2.1032397377698046e-05 -2.1211893471887164e-05 0 2.2282837612726799e-05 -2.2121789914515404e-05 0 2.371728494988765e-05 -2.0932127976750388e-05 0 2.5873665262953691e-05 -1.9924759821376391e-05 0 2.371728494988765e-05 -2.0932127976750388e-05 0 2.5049615078041573e-05 -2.2627484693518125e-05 0 2.2120377924395241e-05 -2.3333184665701427e-05 0 2.2282837612726799e-05 -2.2121789914515404e-05 0 2.5049615078041573e-05 -2.2627484693518125e-05 0 2.2282837612726799e-05 -2.2121789914515404e-05 0 2.371728494988765e-05 -2.0932127976750388e-05 0 2.5049615078041573e-05 -2.2627484693518125e-05 0 2.5049615078041573e-05 -2.2627484693518125e-05 0 2.7538560217067254e-05 -2.374805045389012e-05 0 2.4731164071542879e-05 -2.474119659238873e-05 0 2.2120377924395241e-05 -2.3333184665701427e-05 0 2.5049615078041573e-05 -2.2627484693518125e-05 0 2.4731164071542879e-05 -2.474119659238873e-05 0 2.5873665262953691e-05 -1.9924759821376391e-05 0 2.5049615078041573e-05 -2.2627484693518125e-05 0 2.8315120935077401e-05 -2.1182995966408634e-05 0 2.5049615078041573e-05 -2.2627484693518125e-05 0 2.7538560217067254e-05 -2.374805045389012e-05 0 2.8315120935077401e-05 -2.1182995966408634e-05 0 2.7538560217067254e-05 -2.374805045389012e-05 0 2.4731164071542879e-05 -2.474119659238873e-05 0 2.8576436433337243e-05 -2.6216785715138006e-05 0 4.5426797100597057e-05 0.00013575946226565013 0 3.2954172045014875e-05 0.00015427770688308017 0 4.778851772286787e-05 0.00015191638704383658 0 3.9088199126711738e-05 6.6066297965357195e-05 0 3.692056460047845e-05 7.2064579872841808e-05 0 2.7538560217067254e-05 -2.374805045389012e-05 0 2.8315120935077401e-05 -2.1182995966408634e-05 0 3.1534930381960364e-05 -2.3363650136280274e-05 0 3.2954172045014875e-05 0.00015427770688308017 0 4.778851772286787e-05 0.00015191638704383658 0 5.0625472730752896e-05 0.00016880257422284136 0 3.1162465771084947e-05 0.00016957342925049036 0 3.2954172045014875e-05 0.00015427770688308017 0 5.0625472730752896e-05 0.00016880257422284136 0 3.1162465771084947e-05 0.00016957342925049036 0 5.0625472730752896e-05 0.00016880257422284136 0 4.0370349331818817e-05 0.00017830955102449172 0 3.692056460047845e-05 7.2064579872841808e-05 0 6.0141533297297313e-05 7.9952795942651004e-05 0 5.0625472730752896e-05 0.00016880257422284136 0 5.4226717737586594e-05 0.00018639284656278438 0 4.0370349331818817e-05 0.00017830955102449172 0 5.4226717737586594e-05 0.00018639284656278438 0 4.0370349331818817e-05 0.00017830955102449172 0 3.5739718402566728e-05 0.00018933733349750178 0 2.4731164071542879e-05 -2.474119659238873e-05 0 2.8576436433337243e-05 -2.6216785715138006e-05 0 2.3649888007853174e-05 -2.7290729597288826e-05 0 2.7538560217067254e-05 -2.374805045389012e-05 0 3.1534930381960364e-05 -2.3363650136280274e-05 0 2.8576436433337243e-05 -2.6216785715138006e-05 0 3.1534930381960364e-05 -2.3363650136280274e-05 0 3.5124827089460347e-05 -2.7297839848637399e-05 0 2.8576436433337243e-05 -2.6216785715138006e-05 0 3.5124827089460347e-05 -2.7297839848637399e-05 0 2.8576436433337243e-05 -2.6216785715138006e-05 0 2.9911347107151455e-05 -2.9885888813795319e-05 0 2.8576436433337243e-05 -2.6216785715138006e-05 0 2.9911347107151455e-05 -2.9885888813795319e-05 0 2.3649888007853174e-05 -2.7290729597288826e-05 0 2.3649888007853174e-05 -2.7290729597288826e-05 0 2.0146061043659842e-05 -2.5959410063371242e-05 0 2.0766229665554658e-05 -2.9376235939622648e-05 0 2.9911347107151455e-05 -2.9885888813795319e-05 0 2.4997875984390414e-05 -3.0328099776708588e-05 0 2.3649888007853174e-05 -2.7290729597288826e-05 0 2.4997875984390414e-05 -3.0328099776708588e-05 0 2.3649888007853174e-05 -2.7290729597288826e-05 0 2.0766229665554658e-05 -2.9376235939622648e-05 0 2.4731164071542879e-05 -2.474119659238873e-05 0 2.3649888007853174e-05 -2.7290729597288826e-05 0 2.1447142703800074e-05 -2.4899195485778616e-05 0 2.3649888007853174e-05 -2.7290729597288826e-05 0 2.1447142703800074e-05 -2.4899195485778616e-05 0 2.0146061043659842e-05 -2.5959410063371242e-05 0 1.9514294557588698e-05 -2.3443987676636192e-05 0 2.1447142703800074e-05 -2.4899195485778616e-05 0 1.8171280483784296e-05 -2.4665956623317834e-05 0 2.2120377924395241e-05 -2.3333184665701427e-05 0 1.9514294557588698e-05 -2.3443987676636192e-05 0 2.1447142703800074e-05 -2.4899195485778616e-05 0 2.2120377924395241e-05 -2.3333184665701427e-05 0 2.4731164071542879e-05 -2.474119659238873e-05 0 2.1447142703800074e-05 -2.4899195485778616e-05 0 1.6579745175805093e-05 -2.3241293354439031e-05 0 1.8171280483784296e-05 -2.4665956623317834e-05 0 1.6235398307625034e-05 -2.4605171417888922e-05 0 1.9514294557588698e-05 -2.3443987676636192e-05 0 1.6579745175805093e-05 -2.3241293354439031e-05 0 1.8171280483784296e-05 -2.4665956623317834e-05 0 1.8171280483784296e-05 -2.4665956623317834e-05 0 2.0146061043659842e-05 -2.5959410063371242e-05 0 1.7919179698140021e-05 -2.6332224277110194e-05 0 2.1447142703800074e-05 -2.4899195485778616e-05 0 1.8171280483784296e-05 -2.4665956623317834e-05 0 2.0146061043659842e-05 -2.5959410063371242e-05 0 1.8171280483784296e-05 -2.4665956623317834e-05 0 1.7919179698140021e-05 -2.6332224277110194e-05 0 1.6235398307625034e-05 -2.4605171417888922e-05 0 2.0146061043659842e-05 -2.5959410063371242e-05 0 1.7919179698140021e-05 -2.6332224277110194e-05 0 2.0766229665554658e-05 -2.9376235939622648e-05 0 1.7919179698140021e-05 -2.6332224277110194e-05 0 2.0766229665554658e-05 -2.9376235939622648e-05 0 1.7907469892803432e-05 -2.7762771707164252e-05 0 1.7919179698140021e-05 -2.6332224277110194e-05 0 1.7907469892803432e-05 -2.7762771707164252e-05 0 1.6354352040705269e-05 -2.5810036932876088e-05 0 1.7907469892803432e-05 -2.7762771707164252e-05 0 1.6199980765845811e-05 -2.5804790453621021e-05 0 1.6354352040705269e-05 -2.5810036932876088e-05 0 1.6199980765845811e-05 -2.5804790453621021e-05 0 1.4664686022722078e-05 -2.4525729898878916e-05 0 1.6354352040705269e-05 -2.5810036932876088e-05 0 1.4664686022722078e-05 -2.4525729898878916e-05 0 1.6354352040705269e-05 -2.5810036932876088e-05 0 1.6235398307625034e-05 -2.4605171417888922e-05 0 1.7919179698140021e-05 -2.6332224277110194e-05 0 1.6354352040705269e-05 -2.5810036932876088e-05 0 1.6235398307625034e-05 -2.4605171417888922e-05 0 1.6201704878316868e-05 -2.4086970932739959e-05 0 1.4540497394290202e-05 -2.4200025708815894e-05 0 1.7303486175253315e-05 -2.3359742804464155e-05 0 1.6199980765845811e-05 -2.5804790453621021e-05 0 1.6201704878316868e-05 -2.4086970932739959e-05 0 1.4540497394290202e-05 -2.4200025708815894e-05 0 1.6199980765845811e-05 -2.5804790453621021e-05 0 1.4664686022722078e-05 -2.4525729898878916e-05 0 1.4540497394290202e-05 -2.4200025708815894e-05 0 1.4540497394290202e-05 -2.4200025708815894e-05 0 1.3264012537881764e-05 -2.3626163429300414e-05 0 1.3053486390800007e-05 -2.383466275238473e-05 0 1.4664686022722078e-05 -2.4525729898878916e-05 0 1.4540497394290202e-05 -2.4200025708815894e-05 0 1.3264012537881764e-05 -2.3626163429300414e-05 0 1.3264012537881764e-05 -2.3626163429300414e-05 0 1.4250861488515904e-05 -2.3390131329202146e-05 0 1.2644779784894065e-05 -2.2614153215025208e-05 0 1.3264012537881764e-05 -2.3626163429300414e-05 0 1.2644779784894065e-05 -2.2614153215025208e-05 0 1.1723861400320232e-05 -2.2807362292080613e-05 0 1.3264012537881764e-05 -2.3626163429300414e-05 0 1.1723861400320232e-05 -2.2807362292080613e-05 0 1.3053486390800007e-05 -2.383466275238473e-05 0 1.4664686022722078e-05 -2.4525729898878916e-05 0 1.6235398307625034e-05 -2.4605171417888922e-05 0 1.4250861488515904e-05 -2.3390131329202146e-05 0 1.4664686022722078e-05 -2.4525729898878916e-05 0 1.3264012537881764e-05 -2.3626163429300414e-05 0 1.4250861488515904e-05 -2.3390131329202146e-05 0 1.6579745175805093e-05 -2.3241293354439031e-05 0 1.6235398307625034e-05 -2.4605171417888922e-05 0 1.4250861488515904e-05 -2.3390131329202146e-05 0 1.6579745175805093e-05 -2.3241293354439031e-05 0 1.4250861488515904e-05 -2.3390131329202146e-05 0 1.4666518753846508e-05 -2.2340276662512123e-05 0 1.5209762272563656e-05 -2.1430602221113421e-05 0 1.4666518753846508e-05 -2.2340276662512123e-05 0 1.3514915760050181e-05 -2.1170866541453009e-05 0 1.4666518753846508e-05 -2.2340276662512123e-05 0 1.3514915760050181e-05 -2.1170866541453009e-05 0 1.3357956075070753e-05 -2.224683096807461e-05 0 1.3514915760050181e-05 -2.1170866541453009e-05 0 1.3357956075070753e-05 -2.224683096807461e-05 0 1.2132477018698518e-05 -2.1214063910286271e-05 0 1.4250861488515904e-05 -2.3390131329202146e-05 0 1.4666518753846508e-05 -2.2340276662512123e-05 0 1.3357956075070753e-05 -2.224683096807461e-05 0 1.3357956075070753e-05 -2.224683096807461e-05 0 1.2644779784894065e-05 -2.2614153215025208e-05 0 1.2132477018698518e-05 -2.1214063910286271e-05 0 1.4250861488515904e-05 -2.3390131329202146e-05 0 1.3357956075070753e-05 -2.224683096807461e-05 0 1.2644779784894065e-05 -2.2614153215025208e-05 0 1.2644779784894065e-05 -2.2614153215025208e-05 0 1.1723861400320232e-05 -2.2807362292080613e-05 0 1.0753568041380183e-05 -2.097829103352669e-05 0 1.1723861400320232e-05 -2.2807362292080613e-05 0 1.0753568041380183e-05 -2.097829103352669e-05 0 1.0418892024200437e-05 -2.1981138176816538e-05 0 1.2644779784894065e-05 -2.2614153215025208e-05 0 1.0753568041380183e-05 -2.097829103352669e-05 0 1.2132477018698518e-05 -2.1214063910286271e-05 0 1.2132477018698518e-05 -2.1214063910286271e-05 0 1.013578286921962e-05 -1.9390869825094424e-05 0 1.21003737711817e-05 -1.9777240255260003e-05 0 1.0753568041380183e-05 -2.097829103352669e-05 0 1.2132477018698518e-05 -2.1214063910286271e-05 0 1.013578286921962e-05 -1.9390869825094424e-05 0 1.0753568041380183e-05 -2.097829103352669e-05 0 1.013578286921962e-05 -1.9390869825094424e-05 0 8.52200904591489e-06 -2.0092539161093843e-05 0 1.013578286921962e-05 -1.9390869825094424e-05 0 1.21003737711817e-05 -1.9777240255260003e-05 0 1.0912555731187432e-05 -1.7761814948508834e-05 0 1.21003737711817e-05 -1.9777240255260003e-05 0 1.0912555731187432e-05 -1.7761814948508834e-05 0 1.265457019969557e-05 -1.8310130054771317e-05 0 1.21003737711817e-05 -1.9777240255260003e-05 0 1.3876642839711644e-05 -2.005316266439968e-05 0 1.265457019969557e-05 -1.8310130054771317e-05 0 1.3514915760050181e-05 -2.1170866541453009e-05 0 1.21003737711817e-05 -1.9777240255260003e-05 0 1.3876642839711644e-05 -2.005316266439968e-05 0 1.5209762272563656e-05 -2.1430602221113421e-05 0 1.3514915760050181e-05 -2.1170866541453009e-05 0 1.3876642839711644e-05 -2.005316266439968e-05 0 1.3514915760050181e-05 -2.1170866541453009e-05 0 1.2132477018698518e-05 -2.1214063910286271e-05 0 1.21003737711817e-05 -1.9777240255260003e-05 0 2.1109547365541704e-05 -6.6546281706587171e-05 0 1.2065209090843703e-05 -6.1039345344775451e-05 0 1.4160262335455847e-05 -7.082689189805811e-05 0 1.4243118980750546e-05 -4.4295658852251424e-05 0 1.251514060027705e-05 -3.7717538631991418e-05 0 2.1109547365541704e-05 -6.6546281706587171e-05 0 1.2065209090843703e-05 -6.1039345344775451e-05 0 1.916042866161173e-05 -5.5859482819664839e-05 0 7.5049594887896513e-06 -2.2015165429328505e-05 0 8.52200904591489e-06 -2.0092539161093843e-05 0 5.9993142917781206e-06 -1.9563371996274942e-05 0 8.52200904591489e-06 -2.0092539161093843e-05 0 6.9714519497913356e-06 -1.7820970591492152e-05 0 5.9993142917781206e-06 -1.9563371996274942e-05 0 1.013578286921962e-05 -1.9390869825094424e-05 0 8.52200904591489e-06 -2.0092539161093843e-05 0 8.5313544162713419e-06 -1.8299329344662299e-05 0 8.52200904591489e-06 -2.0092539161093843e-05 0 8.5313544162713419e-06 -1.8299329344662299e-05 0 6.9714519497913356e-06 -1.7820970591492152e-05 0 1.0753568041380183e-05 -2.097829103352669e-05 0 8.52200904591489e-06 -2.0092539161093843e-05 0 1.0418892024200437e-05 -2.1981138176816538e-05 0 7.5049594887896513e-06 -2.2015165429328505e-05 0 8.52200904591489e-06 -2.0092539161093843e-05 0 9.1896017521139832e-06 -2.2189730320012806e-05 0 8.52200904591489e-06 -2.0092539161093843e-05 0 9.1896017521139832e-06 -2.2189730320012806e-05 0 1.0418892024200437e-05 -2.1981138176816538e-05 0 9.1896017521139832e-06 -2.2189730320012806e-05 0 1.0418892024200437e-05 -2.1981138176816538e-05 0 1.1156164994050291e-05 -2.3474308767055878e-05 0 1.1723861400320232e-05 -2.2807362292080613e-05 0 1.0418892024200437e-05 -2.1981138176816538e-05 0 1.1156164994050291e-05 -2.3474308767055878e-05 0 9.1896017521139832e-06 -2.2189730320012806e-05 0 1.1156164994050291e-05 -2.3474308767055878e-05 0 9.4613974202160172e-06 -2.3989381528523642e-05 0 1.1156164994050291e-05 -2.3474308767055878e-05 0 9.4613974202160172e-06 -2.3989381528523642e-05 0 1.201195825640513e-05 -2.5323035416849684e-05 0 2.3125602435865743e-05 -7.793235243849874e-05 0 1.4160262335455847e-05 -7.082689189805811e-05 0 9.5357482387975873e-06 -7.9914330218522578e-05 0 2.3125602435865743e-05 -7.793235243849874e-05 0 1.4986871570443581e-05 -9.1054646811666794e-05 0 9.5357482387975873e-06 -7.9914330218522578e-05 0 1.6062439949570454e-05 -5.0889983573880383e-05 0 1.8902337402627115e-05 -5.7773409892597122e-05 0 7.5049594887896513e-06 -2.2015165429328505e-05 0 9.1896017521139832e-06 -2.2189730320012806e-05 0 9.4613974202160172e-06 -2.3989381528523642e-05 0 2.1109547365541704e-05 -6.6546281706587171e-05 0 2.3125602435865743e-05 -7.793235243849874e-05 0 1.4160262335455847e-05 -7.082689189805811e-05 0 1.4243118980750546e-05 -4.4295658852251424e-05 0 1.6062439949570454e-05 -5.0889983573880383e-05 0 2.3125602435865743e-05 -7.793235243849874e-05 0 1.4986871570443581e-05 -9.1054646811666794e-05 0 2.5421157108093e-05 -8.9738771382368178e-05 0 1.8902337402627115e-05 -5.7773409892597122e-05 0 2.0148968398402406e-05 -6.3442907859584093e-05 0 1.201195825640513e-05 -2.5323035416849684e-05 0 1.3152194343965353e-05 -2.442988882602869e-05 0 1.538684584237083e-05 -2.5637060383005964e-05 0 1.4986871570443581e-05 -9.1054646811666794e-05 0 2.5421157108093e-05 -8.9738771382368178e-05 0 2.8192081030520571e-05 -0.0001021703958988742 0 1.4986871570443581e-05 -9.1054646811666794e-05 0 2.8192081030520571e-05 -0.0001021703958988742 0 1.4628978829184264e-05 -0.00010241334841282745 0 1.1723861400320232e-05 -2.2807362292080613e-05 0 1.1156164994050291e-05 -2.3474308767055878e-05 0 1.3053486390800007e-05 -2.383466275238473e-05 0 1.1156164994050291e-05 -2.3474308767055878e-05 0 1.3152194343965353e-05 -2.442988882602869e-05 0 1.3053486390800007e-05 -2.383466275238473e-05 0 1.1156164994050291e-05 -2.3474308767055878e-05 0 1.201195825640513e-05 -2.5323035416849684e-05 0 1.3152194343965353e-05 -2.442988882602869e-05 0 1.3152194343965353e-05 -2.442988882602869e-05 0 1.3053486390800007e-05 -2.383466275238473e-05 0 1.5051245387976566e-05 -2.4140588975201966e-05 0 1.4540497394290202e-05 -2.4200025708815894e-05 0 1.3053486390800007e-05 -2.383466275238473e-05 0 1.5051245387976566e-05 -2.4140588975201966e-05 0 1.3152194343965353e-05 -2.442988882602869e-05 0 1.5051245387976566e-05 -2.4140588975201966e-05 0 1.538684584237083e-05 -2.5637060383005964e-05 0 1.5051245387976566e-05 -2.4140588975201966e-05 0 1.538684584237083e-05 -2.5637060383005964e-05 0 1.9432486283741613e-05 -2.4607150896922616e-05 0 1.5051245387976566e-05 -2.4140588975201966e-05 0 1.7303486175253315e-05 -2.3359742804464155e-05 0 1.9432486283741613e-05 -2.4607150896922616e-05 0 1.4540497394290202e-05 -2.4200025708815894e-05 0 1.5051245387976566e-05 -2.4140588975201966e-05 0 1.7303486175253315e-05 -2.3359742804464155e-05 0 2.8192081030520571e-05 -0.0001021703958988742 0 2.1573719112834853e-05 -0.00010894131343232001 0 1.4628978829184264e-05 -0.00010241334841282745 0 2.0148968398402406e-05 -6.3442907859584093e-05 0 3.0661371730524634e-05 -7.03063575879891e-05 0 2.8192081030520571e-05 -0.0001021703958988742 0 3.229799349422558e-05 -0.00011501957255927001 0 2.1573719112834853e-05 -0.00010894131343232001 0 3.229799349422558e-05 -0.00011501957255927001 0 2.1573719112834853e-05 -0.00010894131343232001 0 1.8960832074784689e-05 -0.0001166919271018281 0 2.1573719112834853e-05 -0.00010894131343232001 0 1.1289630279371417e-05 -0.00011020334307975477 0 1.8960832074784689e-05 -0.0001166919271018281 0 1.1289630279371417e-05 -0.00011020334307975477 0 1.8960832074784689e-05 -0.0001166919271018281 0 5.8419550100555961e-06 -0.00011666552576605726 0 1.1289630279371417e-05 -0.00011020334307975477 0 1.4628978829184264e-05 -0.00010241334841282745 0 3.6331879848094605e-06 -0.00010521474897417508 0 2.1573719112834853e-05 -0.00010894131343232001 0 1.1289630279371417e-05 -0.00011020334307975477 0 1.4628978829184264e-05 -0.00010241334841282745 0 1.1289630279371417e-05 -0.00011020334307975477 0 3.6331879848094605e-06 -0.00010521474897417508 0 5.8419550100555961e-06 -0.00011666552576605726 0 3.6331879848094605e-06 -0.00010521474897417508 0 -6.1932928200873328e-06 -0.00011615016012907651 0 -7.0049981061521165e-06 -0.00010095563241998186 0 -6.1932928200873328e-06 -0.00011615016012907651 0 -7.0049981061521165e-06 -0.00010095563241998186 0 -1.6937476138850959e-05 -0.00010491528881035709 0 3.6331879848094605e-06 -0.00010521474897417508 0 5.8419550100555961e-06 -0.00011666552576605726 0 -6.1932928200873328e-06 -0.00011615016012907651 0 3.6331879848094605e-06 -0.00010521474897417508 0 -7.0049981061521165e-06 -0.00010095563241998186 0 4.2518701183001285e-06 -9.2873480561055701e-05 0 -7.0049981061521165e-06 -0.00010095563241998186 0 -8.2752149744059027e-06 -8.7408087765551351e-05 0 4.2518701183001285e-06 -9.2873480561055701e-05 0 -7.0049981061521165e-06 -0.00010095563241998186 0 -8.2752149744059027e-06 -8.7408087765551351e-05 0 -1.8974885460983451e-05 -9.2746677237111804e-05 0 -8.2752149744059027e-06 -8.7408087765551351e-05 0 4.2518701183001285e-06 -9.2873480561055701e-05 0 -7.0055881703357482e-07 -8.1343758467135869e-05 0 1.4986871570443581e-05 -9.1054646811666794e-05 0 4.2518701183001285e-06 -9.2873480561055701e-05 0 9.5357482387975873e-06 -7.9914330218522578e-05 0 1.4986871570443581e-05 -9.1054646811666794e-05 0 1.4628978829184264e-05 -0.00010241334841282745 0 4.2518701183001285e-06 -9.2873480561055701e-05 0 1.4628978829184264e-05 -0.00010241334841282745 0 3.6331879848094605e-06 -0.00010521474897417508 0 4.2518701183001285e-06 -9.2873480561055701e-05 0 -4.0290070104106035e-05 -0.00010400196921087022 0 -3.2715810960868439e-05 -0.00010898218250409544 0 -2.7592970366502411e-05 -0.00010250120680238042 0 -4.0290070104106035e-05 -0.00010400196921087022 0 -4.0291143717842739e-05 -0.0001155171792801306 0 -3.2715810960868439e-05 -0.00010898218250409544 0 -4.0291143717842739e-05 -0.0001155171792801306 0 -2.8898005056645674e-05 -0.0001155097422926051 0 -3.2715810960868439e-05 -0.00010898218250409544 0 -2.8898005056645674e-05 -0.0001155097422926051 0 -3.2715810960868439e-05 -0.00010898218250409544 0 -2.3313743984877305e-05 -0.00010963419395057874 0 -3.2715810960868439e-05 -0.00010898218250409544 0 -2.7592970366502411e-05 -0.00010250120680238042 0 -2.3313743984877305e-05 -0.00010963419395057874 0 -2.7592970366502411e-05 -0.00010250120680238042 0 -2.3313743984877305e-05 -0.00010963419395057874 0 -1.6937476138850959e-05 -0.00010491528881035709 0 -2.3313743984877305e-05 -0.00010963419395057874 0 -1.7522770028746739e-05 -0.00011573924881836019 0 -1.6937476138850959e-05 -0.00010491528881035709 0 -2.8898005056645674e-05 -0.0001155097422926051 0 -2.3313743984877305e-05 -0.00010963419395057874 0 -1.7522770028746739e-05 -0.00011573924881836019 0 -6.1932928200873328e-06 -0.00011615016012907651 0 -1.7522770028746739e-05 -0.00011573924881836019 0 -1.6937476138850959e-05 -0.00010491528881035709 0 -7.0049981061521165e-06 -0.00010095563241998186 0 -1.6937476138850959e-05 -0.00010491528881035709 0 -1.8974885460983451e-05 -9.2746677237111804e-05 0 -8.2752149744059027e-06 -8.7408087765551351e-05 0 -1.8974885460983451e-05 -9.2746677237111804e-05 0 -1.6393810995531585e-05 -7.9494357253678878e-05 0 -1.8974885460983451e-05 -9.2746677237111804e-05 0 -2.9849120157850576e-05 -9.2159410672345681e-05 0 -2.6297562665839786e-05 -8.1473115883961956e-05 0 -2.7592970366502411e-05 -0.00010250120680238042 0 -1.6937476138850959e-05 -0.00010491528881035709 0 -1.8974885460983451e-05 -9.2746677237111804e-05 0 -2.7592970366502411e-05 -0.00010250120680238042 0 -1.8974885460983451e-05 -9.2746677237111804e-05 0 -2.9849120157850576e-05 -9.2159410672345681e-05 0 -4.0290070104106035e-05 -0.00010400196921087022 0 -2.7592970366502411e-05 -0.00010250120680238042 0 -2.9849120157850576e-05 -9.2159410672345681e-05 0 -2.9849120157850576e-05 -9.2159410672345681e-05 0 -4.0048347280563207e-05 -9.2332382804618526e-05 0 -3.9478244737135286e-05 -8.0603324170443595e-05 0 -4.0290070104106035e-05 -0.00010400196921087022 0 -2.9849120157850576e-05 -9.2159410672345681e-05 0 -4.0048347280563207e-05 -9.2332382804618526e-05 0 -3.9478244737135286e-05 -8.0603324170443595e-05 0 -3.1055834559421109e-05 -7.3162652977550613e-05 0 -3.8444302424124751e-05 -6.9249388948952731e-05 0 -2.9849120157850576e-05 -9.2159410672345681e-05 0 -3.9478244737135286e-05 -8.0603324170443595e-05 0 -2.6297562665839786e-05 -8.1473115883961956e-05 0 -2.6297562665839786e-05 -8.1473115883961956e-05 0 -3.1055834559421109e-05 -7.3162652977550613e-05 0 -2.2811023807362364e-05 -6.9089281905620662e-05 0 -3.9478244737135286e-05 -8.0603324170443595e-05 0 -2.6297562665839786e-05 -8.1473115883961956e-05 0 -3.1055834559421109e-05 -7.3162652977550613e-05 0 -2.6297562665839786e-05 -8.1473115883961956e-05 0 -1.6393810995531585e-05 -7.9494357253678878e-05 0 -2.2811023807362364e-05 -6.9089281905620662e-05 0 -1.8974885460983451e-05 -9.2746677237111804e-05 0 -2.6297562665839786e-05 -8.1473115883961956e-05 0 -1.6393810995531585e-05 -7.9494357253678878e-05 0 -1.6393810995531585e-05 -7.9494357253678878e-05 0 -1.4750938906211492e-05 -6.8684736657878965e-05 0 -2.2811023807362364e-05 -6.9089281905620662e-05 0 -1.6393810995531585e-05 -7.9494357253678878e-05 0 -1.4750938906211492e-05 -6.8684736657878965e-05 0 -8.0852576178063985e-06 -7.462974806435534e-05 0 -1.4750938906211492e-05 -6.8684736657878965e-05 0 -1.8043863326756529e-05 -6.1617501359979591e-05 0 -2.2811023807362364e-05 -6.9089281905620662e-05 0 -1.8043863326756529e-05 -6.1617501359979591e-05 0 -9.5063933875053068e-06 -6.1929735028991363e-05 0 -1.6467631095130714e-05 -5.2124320446621553e-05 0 -1.4750938906211492e-05 -6.8684736657878965e-05 0 -1.8043863326756529e-05 -6.1617501359979591e-05 0 -9.5063933875053068e-06 -6.1929735028991363e-05 0 -1.8043863326756529e-05 -6.1617501359979591e-05 0 -2.2811023807362364e-05 -6.9089281905620662e-05 0 -2.6210377685569924e-05 -5.8347412994609176e-05 0 -3.1055834559421109e-05 -7.3162652977550613e-05 0 -2.2811023807362364e-05 -6.9089281905620662e-05 0 -3.1190943783819587e-05 -6.5387196662876674e-05 0 -2.2811023807362364e-05 -6.9089281905620662e-05 0 -3.1190943783819587e-05 -6.5387196662876674e-05 0 -2.6210377685569924e-05 -5.8347412994609176e-05 0 -3.1190943783819587e-05 -6.5387196662876674e-05 0 -2.6210377685569924e-05 -5.8347412994609176e-05 0 -3.6897426146958964e-05 -5.8274479575999719e-05 0 -3.1190943783819587e-05 -6.5387196662876674e-05 0 -3.8444302424124751e-05 -6.9249388948952731e-05 0 -3.6897426146958964e-05 -5.8274479575999719e-05 0 -3.1055834559421109e-05 -7.3162652977550613e-05 0 -3.1190943783819587e-05 -6.5387196662876674e-05 0 -3.8444302424124751e-05 -6.9249388948952731e-05 0 -7.0894567674880761e-07 -7.1165440833393403e-05 0 9.5357482387975873e-06 -7.9914330218522578e-05 0 6.4659718765363113e-06 -6.7204887087776895e-05 0 -7.0894567674880761e-07 -7.1165440833393403e-05 0 9.5357482387975873e-06 -7.9914330218522578e-05 0 -7.0055881703357482e-07 -8.1343758467135869e-05 0 1.4160262335455847e-05 -7.082689189805811e-05 0 9.5357482387975873e-06 -7.9914330218522578e-05 0 6.4659718765363113e-06 -6.7204887087776895e-05 0 4.2518701183001285e-06 -9.2873480561055701e-05 0 9.5357482387975873e-06 -7.9914330218522578e-05 0 -7.0055881703357482e-07 -8.1343758467135869e-05 0 -8.2752149744059027e-06 -8.7408087765551351e-05 0 -7.0055881703357482e-07 -8.1343758467135869e-05 0 -8.0852576178063985e-06 -7.462974806435534e-05 0 -8.2752149744059027e-06 -8.7408087765551351e-05 0 -1.6393810995531585e-05 -7.9494357253678878e-05 0 -8.0852576178063985e-06 -7.462974806435534e-05 0 -7.0894567674880761e-07 -7.1165440833393403e-05 0 -7.0055881703357482e-07 -8.1343758467135869e-05 0 -8.0852576178063985e-06 -7.462974806435534e-05 0 -7.0894567674880761e-07 -7.1165440833393403e-05 0 -9.5063933875053068e-06 -6.1929735028991363e-05 0 -1.1209750466780044e-06 -6.0528291815206826e-05 0 -7.0894567674880761e-07 -7.1165440833393403e-05 0 -8.0852576178063985e-06 -7.462974806435534e-05 0 -9.5063933875053068e-06 -6.1929735028991363e-05 0 -1.4750938906211492e-05 -6.8684736657878965e-05 0 -8.0852576178063985e-06 -7.462974806435534e-05 0 -9.5063933875053068e-06 -6.1929735028991363e-05 0 -9.5063933875053068e-06 -6.1929735028991363e-05 0 -1.1209750466780044e-06 -6.0528291815206826e-05 0 -6.3519262957680856e-06 -5.2113529524026366e-05 0 -1.1209750466780044e-06 -6.0528291815206826e-05 0 6.4659718765363113e-06 -6.7204887087776895e-05 0 5.2476498481674787e-06 -5.8329351792719694e-05 0 -7.0894567674880761e-07 -7.1165440833393403e-05 0 -1.1209750466780044e-06 -6.0528291815206826e-05 0 6.4659718765363113e-06 -6.7204887087776895e-05 0 1.2065209090843703e-05 -6.1039345344775451e-05 0 1.4160262335455847e-05 -7.082689189805811e-05 0 6.4659718765363113e-06 -6.7204887087776895e-05 0 1.2065209090843703e-05 -6.1039345344775451e-05 0 6.4659718765363113e-06 -6.7204887087776895e-05 0 5.2476498481674787e-06 -5.8329351792719694e-05 0 1.2065209090843703e-05 -6.1039345344775451e-05 0 5.2476498481674787e-06 -5.8329351792719694e-05 0 9.0489431960343339e-06 -5.1435385719035208e-05 0 5.2476498481674787e-06 -5.8329351792719694e-05 0 9.0489431960343339e-06 -5.1435385719035208e-05 0 -4.6630330525212024e-08 -5.1724690937909414e-05 0 9.0489431960343339e-06 -5.1435385719035208e-05 0 3.9528034090511299e-06 -4.5261280928477603e-05 0 -4.6630330525212024e-08 -5.1724690937909414e-05 0 9.0489431960343339e-06 -5.1435385719035208e-05 0 3.9528034090511299e-06 -4.5261280928477603e-05 0 9.3825271887840445e-06 -4.2182186532458449e-05 0 3.9528034090511299e-06 -4.5261280928477603e-05 0 -4.6630330525212024e-08 -5.1724690937909414e-05 0 -1.9557299969926021e-06 -4.3881009574450399e-05 0 -1.1209750466780044e-06 -6.0528291815206826e-05 0 5.2476498481674787e-06 -5.8329351792719694e-05 0 -4.6630330525212024e-08 -5.1724690937909414e-05 0 -1.1209750466780044e-06 -6.0528291815206826e-05 0 -4.6630330525212024e-08 -5.1724690937909414e-05 0 -6.3519262957680856e-06 -5.2113529524026366e-05 0 -9.5063933875053068e-06 -6.1929735028991363e-05 0 -6.3519262957680856e-06 -5.2113529524026366e-05 0 -1.6467631095130714e-05 -5.2124320446621553e-05 0 -6.3519262957680856e-06 -5.2113529524026366e-05 0 -9.162225128577794e-06 -4.3461274188387797e-05 0 -1.6467631095130714e-05 -5.2124320446621553e-05 0 -4.6630330525212024e-08 -5.1724690937909414e-05 0 -6.3519262957680856e-06 -5.2113529524026366e-05 0 -1.9557299969926021e-06 -4.3881009574450399e-05 0 -6.3519262957680856e-06 -5.2113529524026366e-05 0 -9.162225128577794e-06 -4.3461274188387797e-05 0 -1.9557299969926021e-06 -4.3881009574450399e-05 0 -9.162225128577794e-06 -4.3461274188387797e-05 0 -2.5899609254696207e-06 -3.4943983535151726e-05 0 -1.9557299969926021e-06 -4.3881009574450399e-05 0 -9.162225128577794e-06 -4.3461274188387797e-05 0 -1.3710906793844908e-05 -3.7741628236330264e-05 0 -8.3646240625672425e-06 -3.2137448154012301e-05 0 -9.162225128577794e-06 -4.3461274188387797e-05 0 -2.5899609254696207e-06 -3.4943983535151726e-05 0 -8.3646240625672425e-06 -3.2137448154012301e-05 0 -2.5899609254696207e-06 -3.4943983535151726e-05 0 3.4357479279757649e-06 -3.7450990611851943e-05 0 3.1316133178959819e-06 -2.7313461626578391e-05 0 3.4357479279757649e-06 -3.7450990611851943e-05 0 3.1316133178959819e-06 -2.7313461626578391e-05 0 8.6225655736294723e-06 -3.2345174447660604e-05 0 3.9528034090511299e-06 -4.5261280928477603e-05 0 3.4357479279757649e-06 -3.7450990611851943e-05 0 9.3825271887840445e-06 -4.2182186532458449e-05 0 -2.5899609254696207e-06 -3.4943983535151726e-05 0 3.4357479279757649e-06 -3.7450990611851943e-05 0 -1.9557299969926021e-06 -4.3881009574450399e-05 0 3.9528034090511299e-06 -4.5261280928477603e-05 0 3.4357479279757649e-06 -3.7450990611851943e-05 0 -1.9557299969926021e-06 -4.3881009574450399e-05 0 -3.4850583343517053e-05 -4.8019093193487638e-05 0 -3.0543094165289006e-05 -5.3100052095485521e-05 0 -2.4322052578092882e-05 -4.7529428806306291e-05 0 -3.4850583343517053e-05 -4.8019093193487638e-05 0 -2.4322052578092882e-05 -4.7529428806306291e-05 0 -2.6758561978878635e-05 -4.0537083983652276e-05 0 -2.6210377685569924e-05 -5.8347412994609176e-05 0 -3.6897426146958964e-05 -5.8274479575999719e-05 0 -3.0543094165289006e-05 -5.3100052095485521e-05 0 -3.4850583343517053e-05 -4.8019093193487638e-05 0 -3.6897426146958964e-05 -5.8274479575999719e-05 0 -3.0543094165289006e-05 -5.3100052095485521e-05 0 -2.6210377685569924e-05 -5.8347412994609176e-05 0 -3.0543094165289006e-05 -5.3100052095485521e-05 0 -2.4322052578092882e-05 -4.7529428806306291e-05 0 -2.4322052578092882e-05 -4.7529428806306291e-05 0 -1.6467631095130714e-05 -5.2124320446621553e-05 0 -1.6392563560877897e-05 -4.3669441279339782e-05 0 -2.6210377685569924e-05 -5.8347412994609176e-05 0 -2.4322052578092882e-05 -4.7529428806306291e-05 0 -1.6467631095130714e-05 -5.2124320446621553e-05 0 -1.8043863326756529e-05 -6.1617501359979591e-05 0 -2.6210377685569924e-05 -5.8347412994609176e-05 0 -1.6467631095130714e-05 -5.2124320446621553e-05 0 -9.162225128577794e-06 -4.3461274188387797e-05 0 -1.6467631095130714e-05 -5.2124320446621553e-05 0 -1.6392563560877897e-05 -4.3669441279339782e-05 0 -1.6392563560877897e-05 -4.3669441279339782e-05 0 -1.3710906793844908e-05 -3.7741628236330264e-05 0 -2.0154827868615417e-05 -3.8276921589347571e-05 0 -9.162225128577794e-06 -4.3461274188387797e-05 0 -1.6392563560877897e-05 -4.3669441279339782e-05 0 -1.3710906793844908e-05 -3.7741628236330264e-05 0 -1.3710906793844908e-05 -3.7741628236330264e-05 0 -1.4674346433315578e-05 -3.1826571829772969e-05 0 -8.3646240625672425e-06 -3.2137448154012301e-05 0 -1.3710906793844908e-05 -3.7741628236330264e-05 0 -2.0154827868615417e-05 -3.8276921589347571e-05 0 -1.4674346433315578e-05 -3.1826571829772969e-05 0 -2.0154827868615417e-05 -3.8276921589347571e-05 0 -2.3221684549203293e-05 -3.2441626941001111e-05 0 -1.4674346433315578e-05 -3.1826571829772969e-05 0 -2.4322052578092882e-05 -4.7529428806306291e-05 0 -1.6392563560877897e-05 -4.3669441279339782e-05 0 -2.0154827868615417e-05 -3.8276921589347571e-05 0 -2.4322052578092882e-05 -4.7529428806306291e-05 0 -2.0154827868615417e-05 -3.8276921589347571e-05 0 -2.6758561978878635e-05 -4.0537083983652276e-05 0 -2.0154827868615417e-05 -3.8276921589347571e-05 0 -2.6758561978878635e-05 -4.0537083983652276e-05 0 -2.3221684549203293e-05 -3.2441626941001111e-05 0 -2.6758561978878635e-05 -4.0537083983652276e-05 0 -3.2460666887230142e-05 -3.856114395997936e-05 0 -2.3221684549203293e-05 -3.2441626941001111e-05 0 -3.4850583343517053e-05 -4.8019093193487638e-05 0 -2.6758561978878635e-05 -4.0537083983652276e-05 0 -3.2460666887230142e-05 -3.856114395997936e-05 0 -2.9753399817946262e-05 -3.0037664919110518e-05 0 -2.2829814769401911e-05 -2.5300650419588219e-05 0 -2.6548045533366564e-05 -2.253796300428896e-05 0 -3.2460666887230142e-05 -3.856114395997936e-05 0 -2.9753399817946262e-05 -3.0037664919110518e-05 0 -2.3221684549203293e-05 -3.2441626941001111e-05 0 -2.9753399817946262e-05 -3.0037664919110518e-05 0 -2.3221684549203293e-05 -3.2441626941001111e-05 0 -2.2829814769401911e-05 -2.5300650419588219e-05 0 -2.3221684549203293e-05 -3.2441626941001111e-05 0 -2.2829814769401911e-05 -2.5300650419588219e-05 0 -1.7232564328004679e-05 -2.5065485843792509e-05 0 -2.3221684549203293e-05 -3.2441626941001111e-05 0 -1.7232564328004679e-05 -2.5065485843792509e-05 0 -1.4674346433315578e-05 -3.1826571829772969e-05 0 -1.4674346433315578e-05 -3.1826571829772969e-05 0 -1.2360627157855617e-05 -2.6004439278509134e-05 0 -8.3646240625672425e-06 -3.2137448154012301e-05 0 -1.7232564328004679e-05 -2.5065485843792509e-05 0 -1.4674346433315578e-05 -3.1826571829772969e-05 0 -1.2360627157855617e-05 -2.6004439278509134e-05 0 -1.2360627157855617e-05 -2.6004439278509134e-05 0 -1.2949787872000387e-05 -2.0840239968308747e-05 0 -7.7348823482787807e-06 -2.1976864220795517e-05 0 -1.7232564328004679e-05 -2.5065485843792509e-05 0 -1.2360627157855617e-05 -2.6004439278509134e-05 0 -1.2949787872000387e-05 -2.0840239968308747e-05 0 -1.2949787872000387e-05 -2.0840239968308747e-05 0 -1.0364999205198262e-05 -1.5425071281865351e-05 0 -1.7687796738028964e-05 -1.7908832858482926e-05 0 -1.2272790762600865e-05 -1.2227292950828639e-05 0 -1.0364999205198262e-05 -1.5425071281865351e-05 0 -1.7687796738028964e-05 -1.7908832858482926e-05 0 -1.7232564328004679e-05 -2.5065485843792509e-05 0 -1.2949787872000387e-05 -2.0840239968308747e-05 0 -1.7687796738028964e-05 -1.7908832858482926e-05 0 -2.2829814769401911e-05 -2.5300650419588219e-05 0 -1.7687796738028964e-05 -1.7908832858482926e-05 0 -2.6548045533366564e-05 -2.253796300428896e-05 0 -2.2829814769401911e-05 -2.5300650419588219e-05 0 -1.7232564328004679e-05 -2.5065485843792509e-05 0 -1.7687796738028964e-05 -1.7908832858482926e-05 0 -2.3428774210742831e-05 -1.6231681675142617e-05 0 -1.7687796738028964e-05 -1.7908832858482926e-05 0 -2.6548045533366564e-05 -2.253796300428896e-05 0 3.1316133178959819e-06 -2.7313461626578391e-05 0 -3.4916841636843609e-06 -2.6966188951670756e-05 0 -1.6346821552468146e-06 -2.0081266229047894e-05 0 3.1316133178959819e-06 -2.7313461626578391e-05 0 -1.6346821552468146e-06 -2.0081266229047894e-05 0 3.6134853395338782e-06 -1.7931810499927113e-05 0 -2.5899609254696207e-06 -3.4943983535151726e-05 0 3.1316133178959819e-06 -2.7313461626578391e-05 0 -3.4916841636843609e-06 -2.6966188951670756e-05 0 -2.5899609254696207e-06 -3.4943983535151726e-05 0 -3.4916841636843609e-06 -2.6966188951670756e-05 0 -8.3646240625672425e-06 -3.2137448154012301e-05 0 -1.2360627157855617e-05 -2.6004439278509134e-05 0 -8.3646240625672425e-06 -3.2137448154012301e-05 0 -7.7348823482787807e-06 -2.1976864220795517e-05 0 -3.4916841636843609e-06 -2.6966188951670756e-05 0 -8.3646240625672425e-06 -3.2137448154012301e-05 0 -7.7348823482787807e-06 -2.1976864220795517e-05 0 -3.4916841636843609e-06 -2.6966188951670756e-05 0 -7.7348823482787807e-06 -2.1976864220795517e-05 0 -1.6346821552468146e-06 -2.0081266229047894e-05 0 -7.7348823482787807e-06 -2.1976864220795517e-05 0 -5.3442015562581652e-06 -1.556133515168074e-05 0 -1.6346821552468146e-06 -2.0081266229047894e-05 0 -1.2949787872000387e-05 -2.0840239968308747e-05 0 -1.0364999205198262e-05 -1.5425071281865351e-05 0 -7.7348823482787807e-06 -2.1976864220795517e-05 0 -7.61619717595116e-06 -1.2211629184056464e-05 0 -1.0364999205198262e-05 -1.5425071281865351e-05 0 -5.3442015562581652e-06 -1.556133515168074e-05 0 -1.0364999205198262e-05 -1.5425071281865351e-05 0 -7.7348823482787807e-06 -2.1976864220795517e-05 0 -5.3442015562581652e-06 -1.556133515168074e-05 0 -5.3442015562581652e-06 -1.556133515168074e-05 0 -1.4324225799847545e-06 -1.3731361338505073e-05 0 -1.6346821552468146e-06 -2.0081266229047894e-05 0 -1.4324225799847545e-06 -1.3731361338505073e-05 0 -1.6346821552468146e-06 -2.0081266229047894e-05 0 3.6134853395338782e-06 -1.7931810499927113e-05 0 2.4796556993267744e-06 -1.1518942420938941e-05 0 -1.4324225799847545e-06 -1.3731361338505073e-05 0 3.6134853395338782e-06 -1.7931810499927113e-05 0 2.4796556993267744e-06 -1.1518942420938941e-05 0 5.8730906152776202e-06 -9.9683330501472145e-06 0 3.6134853395338782e-06 -1.7931810499927113e-05 0 5.8730906152776202e-06 -9.9683330501472145e-06 0 4.4947609337009386e-06 -8.7200714283967086e-06 0 4.741924232374835e-06 -8.1829828196546284e-06 0 5.8730906152776202e-06 -9.9683330501472145e-06 0 9.9672664283786551e-06 -1.9622727984182216e-05 0 3.6134853395338782e-06 -1.7931810499927113e-05 0 5.2962018854328162e-06 -9.7740268754214303e-06 0 7.4718354854802025e-06 -1.4328391445452708e-05 0 9.9672664283786551e-06 -1.9622727984182216e-05 0 3.6134853395338782e-06 -1.7931810499927113e-05 0 7.674756496782702e-06 -2.418386143436207e-05 0 3.1316133178959819e-06 -2.7313461626578391e-05 0 3.6134853395338782e-06 -1.7931810499927113e-05 0 7.674756496782702e-06 -2.418386143436207e-05 0 7.4718354854802025e-06 -1.4328391445452708e-05 0 8.4693274481482469e-06 -1.9270098837958e-05 0 9.9672664283786551e-06 -1.9622727984182216e-05 0 7.674756496782702e-06 -2.418386143436207e-05 0 1.2900964763086743e-05 -2.7699251861200617e-05 0 8.4693274481482469e-06 -1.9270098837958e-05 0 9.7189574197144632e-06 -2.5100565080125111e-05 0 7.674756496782702e-06 -2.418386143436207e-05 0 1.2900964763086743e-05 -2.7699251861200617e-05 0 8.6225655736294723e-06 -3.2345174447660604e-05 0 3.1316133178959819e-06 -2.7313461626578391e-05 0 7.674756496782702e-06 -2.418386143436207e-05 0 8.6225655736294723e-06 -3.2345174447660604e-05 0 5.364357097075803e-06 -1.1516216355509136e-05 0 5.2741967168192822e-06 -8.9402990005567551e-06 0 6.3548259945868759e-06 -1.0762299936849071e-05 0 4.1341794579675628e-06 -1.091709323018655e-05 0 5.364357097075803e-06 -1.1516216355509136e-05 0 4.2386081486586688e-06 -1.3751146537815334e-05 0 4.1341794579675628e-06 -1.091709323018655e-05 0 5.364357097075803e-06 -1.1516216355509136e-05 0 5.2741967168192822e-06 -8.9402990005567551e-06 0 4.4947609337009386e-06 -8.7200714283967086e-06 0 4.1341794579675628e-06 -1.091709323018655e-05 0 5.2741967168192822e-06 -8.9402990005567551e-06 0 5.2741967168192822e-06 -8.9402990005567551e-06 0 4.741924232374835e-06 -8.1829828196546284e-06 0 5.617886680842348e-06 -7.0854944598306696e-06 0 4.4947609337009386e-06 -8.7200714283967086e-06 0 5.2741967168192822e-06 -8.9402990005567551e-06 0 4.741924232374835e-06 -8.1829828196546284e-06 0 4.9526689004367203e-06 -7.2482431619772046e-06 0 5.8730906152776202e-06 -9.9683330501472145e-06 0 4.741924232374835e-06 -8.1829828196546284e-06 0 4.9526689004367203e-06 -7.2482431619772046e-06 0 4.741924232374835e-06 -8.1829828196546284e-06 0 5.617886680842348e-06 -7.0854944598306696e-06 0 5.2741967168192822e-06 -8.9402990005567551e-06 0 5.617886680842348e-06 -7.0854944598306696e-06 0 6.7207236911231319e-06 -9.1152115284259567e-06 0 5.617886680842348e-06 -7.0854944598306696e-06 0 7.2471080699726818e-06 -6.8537564109713583e-06 0 6.7207236911231319e-06 -9.1152115284259567e-06 0 6.4940661558777103e-06 -4.80037204337421e-06 0 5.617886680842348e-06 -7.0854944598306696e-06 0 7.2471080699726818e-06 -6.8537564109713583e-06 0 7.6757904725792592e-06 -3.6707791847976068e-06 0 8.4883959046012023e-06 -5.8418944557901833e-06 0 7.2471080699726818e-06 -6.8537564109713583e-06 0 7.6757904725792592e-06 -3.6707791847976068e-06 0 6.4940661558777103e-06 -4.80037204337421e-06 0 7.2471080699726818e-06 -6.8537564109713583e-06 0 8.4883959046012023e-06 -5.8418944557901833e-06 0 8.9821840500993101e-06 -8.8431615513425565e-06 0 7.2471080699726818e-06 -6.8537564109713583e-06 0 8.9821840500993101e-06 -8.8431615513425565e-06 0 8.0198557421449873e-06 -9.1677095177832751e-06 0 9.4044086880604496e-06 -1.1441911537772558e-05 0 8.9821840500993101e-06 -8.8431615513425565e-06 0 7.2471080699726818e-06 -6.8537564109713583e-06 0 8.0198557421449873e-06 -9.1677095177832751e-06 0 8.0198557421449873e-06 -9.1677095177832751e-06 0 8.2115465818356306e-06 -1.1074944917283761e-05 0 6.7207236911231319e-06 -9.1152115284259567e-06 0 7.2471080699726818e-06 -6.8537564109713583e-06 0 8.0198557421449873e-06 -9.1677095177832751e-06 0 6.7207236911231319e-06 -9.1152115284259567e-06 0 8.0198557421449873e-06 -9.1677095177832751e-06 0 8.2115465818356306e-06 -1.1074944917283761e-05 0 9.4044086880604496e-06 -1.1441911537772558e-05 0 5.2741967168192822e-06 -8.9402990005567551e-06 0 6.7207236911231319e-06 -9.1152115284259567e-06 0 6.3548259945868759e-06 -1.0762299936849071e-05 0 8.2115465818356306e-06 -1.1074944917283761e-05 0 6.7207236911231319e-06 -9.1152115284259567e-06 0 7.7212499707366803e-06 -1.2478981025617017e-05 0 6.7207236911231319e-06 -9.1152115284259567e-06 0 6.3548259945868759e-06 -1.0762299936849071e-05 0 7.7212499707366803e-06 -1.2478981025617017e-05 0 6.3548259945868759e-06 -1.0762299936849071e-05 0 7.7212499707366803e-06 -1.2478981025617017e-05 0 6.3845008174520567e-06 -1.3400478651351516e-05 0 7.7212499707366803e-06 -1.2478981025617017e-05 0 9.4385592831179158e-06 -1.343490349433365e-05 0 9.2985721566292883e-06 -1.5282303467175475e-05 0 7.7212499707366803e-06 -1.2478981025617017e-05 0 7.7543787168625532e-06 -1.480894090252979e-05 0 9.2985721566292883e-06 -1.5282303467175475e-05 0 7.7212499707366803e-06 -1.2478981025617017e-05 0 7.7543787168625532e-06 -1.480894090252979e-05 0 6.3845008174520567e-06 -1.3400478651351516e-05 0 9.4044086880604496e-06 -1.1441911537772558e-05 0 1.0867377183184476e-05 -1.3922210298082457e-05 0 9.4385592831179158e-06 -1.343490349433365e-05 0 8.2115465818356306e-06 -1.1074944917283761e-05 0 9.4044086880604496e-06 -1.1441911537772558e-05 0 9.4385592831179158e-06 -1.343490349433365e-05 0 8.2115465818356306e-06 -1.1074944917283761e-05 0 7.7212499707366803e-06 -1.2478981025617017e-05 0 9.4385592831179158e-06 -1.343490349433365e-05 0 9.4385592831179158e-06 -1.343490349433365e-05 0 1.1289996674599527e-05 -1.6025158186976542e-05 0 9.2985721566292883e-06 -1.5282303467175475e-05 0 1.0867377183184476e-05 -1.3922210298082457e-05 0 9.4385592831179158e-06 -1.343490349433365e-05 0 1.1289996674599527e-05 -1.6025158186976542e-05 0 1.3488996892598016e-05 -1.7591720727287233e-05 0 1.1289996674599527e-05 -1.6025158186976542e-05 0 1.265457019969557e-05 -1.8310130054771317e-05 0 1.1289996674599527e-05 -1.6025158186976542e-05 0 1.0912555731187432e-05 -1.7761814948508834e-05 0 9.2985721566292883e-06 -1.5282303467175475e-05 0 1.1289996674599527e-05 -1.6025158186976542e-05 0 1.0912555731187432e-05 -1.7761814948508834e-05 0 1.265457019969557e-05 -1.8310130054771317e-05 0 7.7543787168625532e-06 -1.480894090252979e-05 0 9.1405976234087668e-06 -1.7189250669919688e-05 0 7.6896897289460581e-06 -1.6697401611009195e-05 0 1.0912555731187432e-05 -1.7761814948508834e-05 0 9.2985721566292883e-06 -1.5282303467175475e-05 0 9.1405976234087668e-06 -1.7189250669919688e-05 0 7.7543787168625532e-06 -1.480894090252979e-05 0 9.2985721566292883e-06 -1.5282303467175475e-05 0 9.1405976234087668e-06 -1.7189250669919688e-05 0 1.013578286921962e-05 -1.9390869825094424e-05 0 1.0912555731187432e-05 -1.7761814948508834e-05 0 9.1405976234087668e-06 -1.7189250669919688e-05 0 9.1405976234087668e-06 -1.7189250669919688e-05 0 8.5313544162713419e-06 -1.8299329344662299e-05 0 7.6896897289460581e-06 -1.6697401611009195e-05 0 1.013578286921962e-05 -1.9390869825094424e-05 0 9.1405976234087668e-06 -1.7189250669919688e-05 0 8.5313544162713419e-06 -1.8299329344662299e-05 0 8.5313544162713419e-06 -1.8299329344662299e-05 0 7.6896897289460581e-06 -1.6697401611009195e-05 0 6.9714519497913356e-06 -1.7820970591492152e-05 0 7.6896897289460581e-06 -1.6697401611009195e-05 0 6.1868209701601691e-06 -1.5508124488504264e-05 0 6.9714519497913356e-06 -1.7820970591492152e-05 0 7.7543787168625532e-06 -1.480894090252979e-05 0 7.6896897289460581e-06 -1.6697401611009195e-05 0 6.1868209701601691e-06 -1.5508124488504264e-05 0 6.1868209701601691e-06 -1.5508124488504264e-05 0 6.9714519497913356e-06 -1.7820970591492152e-05 0 4.8783970781344524e-06 -1.678363685891923e-05 0 9.0489431960343339e-06 -5.1435385719035208e-05 0 1.916042866161173e-05 -5.5859482819664839e-05 0 1.7255641100101148e-05 -4.5801672829722341e-05 0 1.251514060027705e-05 -3.7717538631991418e-05 0 1.103071767628958e-05 -3.1299136985721838e-05 0 6.9714519497913356e-06 -1.7820970591492152e-05 0 5.9993142917781206e-06 -1.9563371996274942e-05 0 4.8783970781344524e-06 -1.678363685891923e-05 0 1.2065209090843703e-05 -6.1039345344775451e-05 0 9.0489431960343339e-06 -5.1435385719035208e-05 0 1.916042866161173e-05 -5.5859482819664839e-05 0 9.0489431960343339e-06 -5.1435385719035208e-05 0 1.7255641100101148e-05 -4.5801672829722341e-05 0 9.3825271887840445e-06 -4.2182186532458449e-05 0 1.7255641100101148e-05 -4.5801672829722341e-05 0 9.3825271887840445e-06 -4.2182186532458449e-05 0 1.5197695804540929e-05 -3.6420234113874073e-05 0 6.1868209701601691e-06 -1.5508124488504264e-05 0 4.8783970781344524e-06 -1.678363685891923e-05 0 4.2386081486586688e-06 -1.3751146537815334e-05 0 1.103071767628958e-05 -3.1299136985721838e-05 0 9.7189574197144632e-06 -2.5100565080125111e-05 0 9.3825271887840445e-06 -4.2182186532458449e-05 0 8.6225655736294723e-06 -3.2345174447660604e-05 0 1.5197695804540929e-05 -3.6420234113874073e-05 0 3.4357479279757649e-06 -3.7450990611851943e-05 0 9.3825271887840445e-06 -4.2182186532458449e-05 0 8.6225655736294723e-06 -3.2345174447660604e-05 0 1.2900964763086743e-05 -2.7699251861200617e-05 0 8.6225655736294723e-06 -3.2345174447660604e-05 0 1.5197695804540929e-05 -3.6420234113874073e-05 0 5.364357097075803e-06 -1.1516216355509136e-05 0 4.2386081486586688e-06 -1.3751146537815334e-05 0 6.3845008174520567e-06 -1.3400478651351516e-05 0 5.364357097075803e-06 -1.1516216355509136e-05 0 6.3548259945868759e-06 -1.0762299936849071e-05 0 6.3845008174520567e-06 -1.3400478651351516e-05 0 7.7543787168625532e-06 -1.480894090252979e-05 0 6.1868209701601691e-06 -1.5508124488504264e-05 0 6.3845008174520567e-06 -1.3400478651351516e-05 0 6.1868209701601691e-06 -1.5508124488504264e-05 0 4.2386081486586688e-06 -1.3751146537815334e-05 0 6.3845008174520567e-06 -1.3400478651351516e-05 0 
</DataArray>
</PointData>
<CellData Scalars="region_id,von_mises_stress,cross_section_updated,displacement_divergence," Vectors="" Tensors="stress,">
<DataArray type="Float64" Name="region_id" format="ascii">
1 1 1 1 1 1 1 1 1 1 1 1 1 1 1 1 1 1 1 1 1 1 1 1 1 1 1 1 1 1 1 1 1 1 1 1 1 1 1 1 1 1 1 1 1 1 1 1 1 1 1 1 1 1 1 1 1 1 1 1 1 1 1 1 1 1 1 1 1 1 1 1 1 1 1 1 1 1 1 1 1 1 1 1 1 1 1 1 1 1 1 1 1 1 1 1 1 1 1 1 1 1 1 1 1 1 1 1 1 1 1 1 1 1 1 1 1 1 1 1 1 1 1 1 1 1 1 1 1 1 1 1 1 1 1 1 1 1 1 1 1 1 1 1 1 1 1 1 1 1 1 1 1 1 1 1 1 1 1 1 1 1 1 1 1 1 1 1 1 1 1 1 1 1 1 1 1 1 1 1 1 1 1 1 1 1 1 1 1 1 1 1 1 1 1 1 1 1 1 1 1 1 1 1 1 1 1 1 1 1 1 1 1 1 1 1 1 1 1 1 1 1 1 1 1 1 1 1 1 1 1 1 1 1 1 1 1 1 1 1 1 1 1 1 1 1 1 1 1 1 1 1 1 1 1 1 1 1 1 1 1 1 1 1 1 1 1 1 1 1 1 1 1 1 1 1 1 1 1 1 1 1 1 1 1 1 1 1 1 1 1 1 1 1 1 1 1 1 1 1 1 1 1 1 1 1 1 1 1 1 1 1 1 1 1 1 1 1 1 1 1 1 1 1 1 1 1 1 1 1 1 1 1 1 1 1 1 1 1 1 1 1 1 1 1 1 1 1 1 1 1 1 1 1 1 1 1 1 1 1 1 1 1 1 1 1 1 1 1 1 1 1 1 1 1 1 1 1 1 1 1 1 1 1 1 1 1 1 1 1 1 1 1 1 1 1 1 1 1 1 1 1 1 1 1 1 1 1 1 1 1 1 1 1 1 1 1 1 1 1 1 1 1 1 1 1 1 1 1 1 1 1 1 1 1 1 1 1 1 1 1 1 1 1 1 1 1 1 1 1 1 1 1 1 1 1 1 1 1 1 1 1 1 1 1 1 1 1 1 1 1 1 1 1 1 1 1 1 1 1 1 1 1 1 1 1 1 1 1 1 1 1 1 1 1 1 1 1 1 1 1 1 1 1 1 1 1 1 1 1 1 1 1 1 1 1 1 1 1 1 1 1 1 1 1 1 1 1 1 1 1 1 1 1 1 1 1 1 3 1 1 3 1 1 3 1 1 1 1 1 1 1 1 1 1 1 1 1 3 1 1 1 1 1 3 1 1 1 1 1 1 1 1 1 1 1 1 1 1 1 1 1 1 1 1 1 1 1 1 1 1 1 1 1 1 1 1 1 1 1 1 1 1 1 1 1 1 1 1 1 1 1 1 1 1 1 1 1 1 1 1 1 1 1 1 1 1 1 1 1 1 1 1 1 1 1 1 1 1 1 1 1 1 1 1 1 1 1 1 1 1 1 1 1 1 1 1 1 1 1 1 1 1 1 1 1 1 1 1 1 1 1 1 1 1 1 1 1 1 1 1 1 1 1 1 1 1 1 1 1 1 1 1 1 1 1 1 1 1 1 1 1 1 1 1 1 1 1 1 1 1 1 1 1 1 1 1 1 1 1 1 1 1 1 1 1 1 1 1 1 1 1 1 3 1 1 1 3 1 1 3 1 1 1 1 1 1 1 1 1 1 1 3 1 1 1 1 3 1 1 1 1 1 1 1 1 1 1 1 1 1 1 1 1 1 1 1 1 1 1 1 1 1 1 1 1 1 1 1 1 1 1 1 1 1 1 1 1 1 1 1 1 1 1 1 1 1 1 1 1 1 1 1 1 1 1 2 1 1 1 1 1 1 1 1 1 1 1 1 1 1 2 1 1 2 1 2 1 1 1 1 1 1 1 1 1 1 1 1 1 2 1 1 1 1 1 1 1 1 1 1 1 1 1 1 1 1 1 1 1 1 1 1 1 1 1 1 1 1 1 1 1 1 1 1 1 1 1 1 1 1 1 1 1 1 1 1 1 1 1 1 1 1 1 1 1 1 1 1 1 1 1 1 1 1 1 1 1 1 1 1 1 1 1 1 1 1 1 1 1 1 1 1 1 1 1 1 1 1 1 1 1 1 1 1 1 1 1 1 1 1 1 1 1 1 1 1 1 1 1 1 1 1 1 1 1 1 1 1 1 1 1 1 1 1 1 1 1 1 1 1 1 1 1 1 1 1 2 1 1 2 1 2 1 1 1 1 1 1 1 1 1 1 1 1 1 1 1 1 1 1 1 1 1 1 1 1 1 1 1 1 1 1 1 1 1 1 1 1 1 1 1 1 1 1 1 1 1 1 1 2 1 1 1 1 1 2 1 1 1 1 1 1 1 
</DataArray>
<DataArray type="Float64" Name="stress" NumberOfComponents="9" format="ascii">
-0.024922616865443909 0.0010296632761856227 0 0.0010296632761856227 -0.0032220881630713053 0 0 0 -0.0070361762571288034 -0.023428824360274953 0.0016515134238345339 0 0.0016515134238345339 -0.0077949539794708927 0 0 0 -0.0078059445849364608 -0.025083371684992171 0.0021657844134098706 0 0.0021657844134098706 0.001366297900110466 0 0 0 -0.0059292684462204266 -0.023802839227921833 0.002614912585737041 0 0.002614912585737041 -0.0034575846117909622 0 0 0 -0.0068151059599281969 -0.019300826449064092 0.0057501334069004206 0 0.0057501334069004206 -0.006436145338812105 0 0 0 -0.0064342429469690489 -0.019297423771616549 0.0057532382869237052 0 0.0057532382869237052 -0.0064251153277280681 0 0 0 -0.0064306347748361546 -0.022208533589921343 0.0055503643795501295 0 0.0055503643795501295 -0.0016076700275146358 0 0 0 -0.0059540509043589929 -0.023134714571680679 0.0050226075205694496 0 0.0050226075205694496 -0.0021273043351375878 0 0 0 -0.0063155047267045659 -0.021378845320675827 0.0065779091771104251 0 0.0065779091771104251 -0.0016731117105545229 0 0 0 -0.0057629892578075891 -0.016896793875621353 0.006801527986812295 0 0.006801527986812295 -0.00041822719673390192 0 0 0 -0.0043287552680888134 -0.024626559238989681 0.0070216451313606272 0 0.0070216451313606272 -0.0009448282212301401 0 0 0 -0.0063928468650549537 -0.016651647316791647 0.0077058152545223264 0 0.0077058152545223264 0.00038804131459738156 0 0 0 -0.0040659015005485655 -0.030480940116008964 0.0055113188766505589 0 0.0055113188766505589 -0.00046505770262379557 0 0 0 -0.0077364994546581948 -0.023734113790300958 0.0058250887221875493 0 0.0058250887221875493 0.00034939652003262989 0 0 0 -0.0058461793175670794 -0.036239147945761926 0.0021273879422191184 0 0.0021273879422191184 -0.0011901368003892725 0 0 0 -0.0093573211865377991 -0.029413673439059221 0.0027044672701401398 0 0.0027044672701401398 -0.00015310300075783637 0 0 0 -0.0073916941099542617 -0.026951062313359378 0.0037539682796553686 0 0.0037539682796553686 0.0016158732333278842 0 0 0 -0.0063337972700078758 -0.027285339125364724 0.0056009672312616028 0 0.0056009672312616028 -0.00049508441502269483 0 0 0 -0.0069451058850968552 -0.0028994284729060116 0.0080220343800452773 0 0.0080220343800452773 -0.00096470209590925841 0 0 0 -0.0009660326422038176 -0.0061729842328011996 0.0097743017157482012 0 0.0097743017157482012 -0.0012390631792399548 0 0 0 -0.001853011853010289 -0.0071480285151611818 0.0073797609047656625 0 0.0073797609047656625 -0.00071147496343613829 0 0 0 -0.0019648758696493296 -0.013246552931104823 0.0086886046900898298 0 0.0086886046900898298 -0.0010174790400382938 0 0 0 -0.0035660079927857793 -0.013981277749853352 0.0079278464001587921 0 0.0079278464001587921 -0.0027737044747390624 0 0 0 -0.0041887455561481005 -0.0086804126289694965 0.0087574675398613619 0 0.0087574675398613619 -0.0015639713620861292 0 0 0 -0.0025610959977639064 -0.0088381462519094775 0.0077081739403609831 0 0.0077081739403609831 -0.0029493244991387253 0 0 0 -0.0029468676877620506 -0.014720516006853829 0.0087379248046080427 0 0.0087379248046080427 -0.00056050740009960798 0 0 0 -0.0038202558517383585 -0.015712182042631084 0.0068542491291356186 0 0.0068542491291356186 -0.00066973171733073584 0 0 0 -0.0040954784399904604 -0.013126326561269473 0.0074868802801960318 0 0.0074868802801960318 -0.0014960881955396535 0 0 0 -0.0036556036892022806 -0.0056892016691271387 0.0073033056398470169 0 0.0073033056398470169 -0.00036233755895007103 0 0 0 -0.0015128848070193016 -0.0060729522573934307 0.0081008934434412157 0 0.0081008934434412157 -0.0011601648573412796 0 0 0 -0.0018082792786836815 -0.0026548321355304109 0.0093937665843980746 0 0.0093937665843980746 -0.001085853221319065 0 0 0 -0.00093517133921236853 3.8743914971765825e-05 0.0069578131299559386 0 0.0069578131299559386 9.1303453619274999e-05 0 0 0 3.2511842147761941e-05 -0.00050129416200302146 0.00843181997098672 0 0.00843181997098672 -0.0009371939375792393 0 0 0 -0.00035962202489556519 -0.00058530577778503554 0.0064302461447078834 0 0.0064302461447078834 -0.00012389631141481589 0 0 0 -0.00017730052229996199 -0.0067208603393471315 0.0089664192093671519 0 0.0089664192093671519 -0.00086114082656402885 0 0 0 -0.0018955002914777894 -0.015781331249792578 0.0089718812289073004 0 0.0089718812289073004 -0.00065598808948667126 0 0 0 -0.0041093298348198097 -0.012698289043270011 0.0088602051023635216 0 0.0088602051023635216 -0.00075603869314232533 0 0 0 -0.0033635819341030814 -0.0081889409641396262 0.0071906959554458999 0 0.0071906959554458999 0.00023996604893189444 0 0 0 -0.0019872437288019334 -0.015796723174512382 0.0073333695907168957 0 0.0073333695907168957 0.00059529945824281227 0 0 0 -0.0038003559290673925 -0.017700049654577929 0.0091177824150624111 0 0.0091177824150624111 -0.00046896237467078383 0 0 0 -0.0045422530073121782 -0.012554273735451094 0.0072701699851699308 0 0.0072701699851699308 -0.0001076164183067491 0 0 0 -0.00316547253843946 -0.0088640128374086781 0.0093897834282123289 0 0.0093897834282123289 0.00039709496264101959 0 0 0 -0.002116729468691919 -0.0088975567457762559 0.0071835982720862921 0 0.0071835982720862921 0.0010120387537871809 0 0 0 -0.001971379497997269 -0.0018275488168117402 0.0066745456699346438 0 0.0066745456699346438 0.00051544579819006613 0 0 0 -0.00032802575465542118 -0.0082111266568968833 0.0092376833481524947 0 0.0092376833481524947 -0.00055145793036639329 0 0 0 -0.0021906461468158157 -0.0061046203095951272 0.0062145512789946733 0 0.0062145512789946733 0.0012957879404315196 0 0 0 -0.0012022080922909008 0.004531217416734303 0.0060612108875185752 0 0.0060612108875185752 0.00018857416356361095 0 0 0 0.0011799478950744796 -0.0010034170520938166 0.0078054346354091524 0 0.0078054346354091524 0.00028322435764439879 0 0 0 -0.00018004817361235402 -0.035770459725877383 0.0024972436203503862 0 0.0024972436203503862 -0.001419057489375472 0 0 0 -0.0092973793038132191 -0.028462066042974656 0.0064709940997142498 0 0.0064709940997142498 -3.3227572817953049e-05 0 0 0 -0.0071238234039481488 -0.042476743411705382 0.0034093335333570934 0 0.0034093335333570934 -0.0002121247911624801 0 0 0 -0.010672217050716967 -0.029179827592513891 0.0046161303094338158 0 0.0046161303094338158 0.001103578526428825 0 0 0 -0.0070190622665212664 -0.022409842527173526 0.0065767774137155182 0 0.0065767774137155182 0.00071546965201259305 0 0 0 -0.0054235932187902316 -0.023238365197537757 0.0073810742392875434 0 0.0073810742392875434 -0.00050017320998255177 0 0 0 -0.0059346346018800782 -0.023701946049246726 0.0083410529153595293 0 0.0083410529153595293 -0.00046478611541976925 0 0 0 -0.0060416830411666204 -0.02730924706884735 0.0056462973149433056 0 0.0056462973149433056 0.00062496770738976713 0 0 0 -0.0066710698403643943 -0.019216135714752565 0.0069309597410638323 0 0.0069309597410638323 -5.3043483561804328e-05 0 0 0 -0.0048172947995785914 -0.028543038277424656 0.0079111819733045322 0 0.0079111819733045322 -0.00052453614581573962 0 0 0 -0.0072668936058101034 -0.022407035062049403 0.0063261643287384119 0 0.0063261643287384119 -0.00030957393526158541 0 0 0 -0.0056791522493277562 -0.027782657742788455 0.0059880071495953101 0 0.0059880071495953101 0.00065899154829972793 0 0 0 -0.0067809165486221864 -0.038844980810956296 0.0047507655189613033 0 0.0047507655189613033 -0.00046304964693188923 0 0 0 -0.0098270076144720345 -0.036871918285413155 0.0047396706008469803 0 0.0047396706008469803 -0.0005742815234574092 0 0 0 -0.0093615499522176383 -0.035725196285807594 0.0028716978276794578 0 0.0028716978276794578 0.00040508940623962611 0 0 0 -0.0088300267198919893 -0.048337068352089667 0.0033611704713165632 0 0.0033611704713165632 -0.00038070275847532607 0 0 0 -0.012179442777641254 -0.051488875686243711 0.0029509739316895336 0 0.0029509739316895336 -0.00033692639517517164 0 0 0 -0.012956450520354719 -0.037641066634799776 0.003759544725872665 0 0.003759544725872665 0.0010873884421248965 0 0 0 -0.0091384195481687188 -0.043361420991832135 0.0026220340091882288 0 0.0026220340091882288 0.00066976834949023997 0 0 0 -0.010672913160585466 -0.059513931623984176 0.0020911195301764815 0 0.0020911195301764815 0.00098004833847388506 0 0 0 -0.014633470821377541 -0.045315692282167128 0.0060040132670081342 0 0.0060040132670081342 0.0013430447835669768 0 0 0 -0.010993161874650048 -0.044834018492541143 0.0017458819037899018 0 0.0017458819037899018 -0.00048381015726886578 0 0 0 -0.011329457162452528 -0.048063927261098184 0.0023117826115695538 0 0.0023117826115695538 0.0019620307207074139 0 0 0 -0.011525474135097698 -0.066806917077669281 0.00017360620021121542 0 0.00017360620021121542 -0.00056966760008747563 0 0 0 -0.016844146169439196 -0.027258506940665311 0.0035276604401024148 0 0.0035276604401024148 0.0023412926369308883 0 0 0 -0.0062293035759336101 -0.02235806136851895 0.0083005092544160344 0 0.0083005092544160344 0.001666114325666733 0 0 0 -0.0051729867607130508 -0.033907179363902015 0.005556213948010225 0 0.005556213948010225 -8.4572676677305975e-05 0 0 0 -0.0084979380101448242 -0.03351454693916512 0.0062326062840417336 0 0.0062326062840417336 0.0010284075381276105 0 0 0 -0.0081215348502593852 -0.02221231721968717 0.0086164493750961278 0 0.0086164493750961278 0.0012934003440431179 0 0 0 -0.0052297292189110106 -0.039002152777348809 0.0079620806889087424 0 0.0079620806889087424 0.0017053866409528773 0 0 0 -0.0093241915340989828 -0.032410621001776191 0.005363932619613352 0 0.005363932619613352 -0.00039786453701422107 0 0 0 -0.0082021213846975999 -0.028986472665302764 0.0081268353137033452 0 0.0081268353137033452 0.00077585061556408139 0 0 0 -0.0070526555124346656 -0.020569512045467191 0.0086731436145366433 0 0.0086731436145366433 0.00035553591558247499 0 0 0 -0.0050534940324711832 -0.013254987265012848 0.0082087656843090207 0 0.0082087656843090207 0.00058818644383819285 0 0 0 -0.0031667002052936659 -0.013125522035516656 0.0068953648398641888 0 0.0068953648398641888 0.00092891007447595472 0 0 0 -0.0030491529902601771 -0.011949755709763249 0.0065826953814060764 0 0.0065826953814060764 0.002049811149435473 0 0 0 -0.0024749861400819462 -0.0056586336277802988 0.0080505996628569554 0 0.0080505996628569554 0.00066222639150900937 0 0 0 -0.001249101809067823 -0.02198994897801488 0.0070226919811401823 0 0.0070226919811401823 0.00097773051043041105 0 0 0 -0.0052530546168961158 0.00064923103687510725 0.0056126843489586013 0 0.0056126843489586013 0.0023013258022584644 0 0 0 0.00073763920978339205 -0.0011427354268814562 0.0082135837448020239 0 0.0082135837448020239 -2.7001808459409249e-05 0 0 0 -0.00029243430883521635 -0.0042138961866161721 0.0054665597104872248 0 0.0054665597104872248 0.0028939333744798425 0 0 0 -0.00032999070303408066 0.0054688345068603841 0.0028600005855378371 0 0.0028600005855378371 0.0040674869278178143 0 0 0 0.0023840803586695496 0.0031583378373627848 0.0069910645029980997 0 0.0069910645029980997 0.0015601734110189044 0 0 0 0.001179627812095423 -0.0029001927958326318 0.0055765441568783915 0 0.0055765441568783915 0.004713765946389406 0 0 0 0.00045339328763919703 0.0068740557639173829 0.0038767881944955854 0 0.0038767881944955854 0.0047738977963797877 0 0 0 0.0029119883900742948 0.0064600100448442103 0.002920538667090411 0 0.002920538667090411 0.0078745742782716649 0 0 0 0.0035836460807789662 -0.01261286201753902 0.0084845845680978638 0 0.0084845845680978638 0.0015988193709913362 0 0 0 -0.0027535106616369178 -0.018260891846155231 0.0051309653563987867 0 0.0051309653563987867 0.0018756575126673766 0 0 0 -0.00409630858337196 -0.0032608514594616046 0.0061342486859550481 0 0.0061342486859550481 0.0020658820452946133 0 0 0 -0.00029874235354174737 -0.008521846286806592 0.0041095626386562709 0 0.0041095626386562709 0.0038947625667747204 0 0 0 -0.001156770930007974 -0.011803228022085558 0.0081185417401947284 0 0.0081185417401947284 0.0040233264659038231 0 0 0 -0.0019449753890454294 -0.017481930044276971 0.0076080763625710028 0 0.0076080763625710028 0.0053063849866575724 0 0 0 -0.0030438862644048548 -0.010630779346907017 0.0047972330267422036 0 0.0047972330267422036 0.010888091021526006 0 0 0 6.4327918654745464e-05 -0.016619189778833802 0.0012956399911035407 0 0.0012956399911035407 0.0055260543413707675 0 0 0 -0.0027732838593657605 0.018461078722269361 -1.9010488750699495e-05 0 -1.9010488750699495e-05 0.010015174303623982 0 0 0 0.0071190632564733444 -0.0051910261657622317 0.0061518363630613353 0 0.0061518363630613353 0.0073551562071178661 0 0 0 0.00054103251033890687 0.0037398804954772331 0.0024658241983105955 0 0.0024658241983105955 0.0082205825000720226 0 0 0 0.0029901157488873183 0.0054072323872881509 0.0032180274365128693 0 0.0032180274365128693 0.013580541840541915 0 0 0 0.0047469435569575114 0.014849467089927092 -0.0020589177011746396 0 -0.0020589177011746396 0.015182721539714256 0 0 0 0.0075080471574103316 0.0025682109302409134 0.0013214438383275101 0 0.0013214438383275101 0.021520808611417808 0 0 0 0.0060222548854146768 0.0011121101623994545 -0.0041580872824170945 0 -0.0041580872824170945 0.021410923009741345 0 0 0 0.0056307582930351929 0.0074992822084533894 -0.0078468623678939753 0 -0.0078468623678939753 0.01736348418479744 0 0 0 0.0062156915983127142 0.015207476921372962 -0.0035427695304511703 0 -0.0035427695304511703 0.033314848435950506 0 0 0 0.012130581339330856 -0.015296142633065529 -0.0011202041002688068 0 -0.0011202041002688068 0.013198477961612248 0 0 0 -0.00052441616786332024 -0.0017754094856860941 -0.00042644291765364661 0 -0.00042644291765364661 0.010047153905317935 0 0 0 0.0020679361049079567 -0.0035900304045697676 -0.0068642814698738897 0 -0.0068642814698738897 0.012625453635837849 0 0 0 0.0022588558078170187 -0.017546930865850865 0.00092575457675384736 0 0.00092575457675384736 0.0068215399443757319 0 0 0 -0.0026813477303687799 -0.021723856701572491 -0.0051717237623719881 0 -0.0051717237623719881 0.00745368396433016 0 0 0 -0.0035675431843105836 -0.031783817984758163 -0.00148321431738202 0 -0.00148321431738202 0.0049982150424950911 0 0 0 -0.0066964007355657454 -0.036303534188391842 0.0032105372821405465 0 0.0032105372821405465 0.0031635085620652925 0 0 0 -0.0082850064065816791 -0.044557304553186794 -0.0045209567745540247 0 -0.0045209567745540247 0.0041671327108075973 0 0 0 -0.010097542960594782 -0.049799157831557708 0.0012528483386983202 0 0.0012528483386983202 0.0013109868327870478 0 0 0 -0.012122042749692655 -0.071130161309409051 2.9693469337233047e-05 0 2.9693469337233047e-05 0.0016558642573123172 0 0 0 -0.017368574263024163 -0.05212207049034432 0.0019203547606044397 0 0.0019203547606044397 0.0015970159239747372 0 0 0 -0.012631263641592373 -0.05110284905492863 -0.00044312923459845222 0 -0.00044312923459845222 0.0012768092230688588 0 0 0 -0.012456509957964962 -0.05378291289214901 -0.00015527251054002489 0 -0.00015527251054002489 -0.00041412370718429958 0 0 0 -0.013549259149833296 -0.044469221645518753 0.0055996995580235506 0 0.0055996995580235506 0.001536177355267454 0 0 0 -0.010733261072562825 -0.07048138069244958 0.0025022670862930654 0 0.0025022670862930654 0.00037588721330300556 0 0 0 -0.017526373369786654 -0.0511849194221696 0.0050671292326758821 0 0.0050671292326758821 0.0014392624671775711 0 0 0 -0.012436414238748007 -0.033975232811110728 0.0072757924282374868 0 0.0072757924282374868 0.0029743282094057411 0 0 0 -0.0077502261504262399 -0.025850458027961154 0.0058020288845835391 0 0.0058020288845835391 0.0050334630047190465 0 0 0 -0.0052042487558105338 -0.037156269825115128 0.0013221276625748901 0 0.0013221276625748901 0.0025914366089334531 0 0 0 -0.0086412083040454356 0.014326980276906705 -0.0059522581750505992 0 -0.0059522581750505992 0.030141643686196824 0 0 0 0.011117155990775878 0.015132434382048521 -0.0063884426687261459 0 -0.0063884426687261459 0.025326200338033719 0 0 0 0.010114658680020563 0.014269933763621404 -0.0068746000628588551 0 -0.0068746000628588551 0.021176472466732432 0 0 0 0.0088616015575884652 0.012212085148029017 -0.0044783592666596643 0 -0.0044783592666596643 0.027161801838897 0 0 0 0.0098434717467315094 0.013978934347766691 -0.0010899451169384343 0 -0.0010899451169384343 0.030500523650665495 0 0 0 0.011119864499608051 0.015778019162893724 -0.0021623087679325474 0 -0.0021623087679325474 0.034917815318222717 0 0 0 0.01267395862027911 0.011945354084625326 -0.0069731812102700463 0 -0.0069731812102700463 0.03422046079312796 0 0 0 0.011541453719438322 0.011955757493391266 -0.0064830345634266685 0 -0.0064830345634266685 0.032084257667223309 0 0 0 0.011010003790153645 0.01357456334541134 -0.0072711505931345455 0 -0.0072711505931345455 0.032401441812019427 0 0 0 0.011494001289357684 0.013210465785130916 -0.0067388646721844234 0 -0.0067388646721844234 0.029751604537177428 0 0 0 0.010740517580577084 0.0095162487026605597 -0.0060629904650365343 0 -0.0060629904650365343 0.028921396539063407 0 0 0 0.0096094113104309986 0.011722356508048683 -0.0075686219701535454 0 -0.0075686219701535454 0.031342561398336327 0 0 0 0.010766229476596244 0.011267575865104658 -0.0079112577610283216 0 -0.0079112577610283216 0.030594887707915061 0 0 0 0.010465615893254921 0.011680395167922679 -0.0094862192154034821 0 -0.0094862192154034821 0.03139679322251282 0 0 0 0.010769297097608883 0.011830071199242374 -0.0068549435868969499 0 -0.0068549435868969499 0.036298334888582376 0 0 0 0.012032101521956187 0.034033088949513846 -0.027570224739851767 0 -0.027570224739851767 0.056697303676244953 0 0 0 0.022682598156439693 0.0082724789254696382 -0.015832827513786493 0 -0.015832827513786493 0.034860203402720918 0 0 0 0.010783170582047641 0.031546043860375718 -0.018434934939404714 0 -0.018434934939404714 0.031218470115302377 0 0 0 0.015691128493919522 0.0090201442632833993 -0.0095480464785171887 0 -0.0095480464785171887 0.031821791323255036 0 0 0 0.010210483896634603 0.035383179062045564 -0.0043671491350692065 0 -0.0043671491350692065 0.050045830510371148 0 0 0 0.021357252393104154 0.028975849843062701 -0.0098995938102406783 0 -0.0098995938102406783 0.026528618224701761 0 0 0 0.013876117016941109 0.051181897755239937 -0.014566341756487522 0 -0.014566341756487522 0.034222765282719794 0 0 0 0.021351165759489924 0.023548687260902351 -0.01031105821036335 0 -0.01031105821036335 0.02455738954786248 0 0 0 0.012026519202191218 0.017112169967450935 -0.00086756057731349895 0 -0.00086756057731349895 0.024490657361488928 0 0 0 0.010400706832234955 0.032562012490219429 -0.0065701986346763074 0 -0.0065701986346763074 0.019311024959121709 0 0 0 0.01296825936233529 0.016110068288271117 -0.0024754650547006186 0 -0.0024754650547006186 0.01483423964644979 0 0 0 0.0077360769836802255 0.021714816699727239 -0.0034624178043221529 0 -0.0034624178043221529 0.010950218362028245 0 0 0 0.0081662587654388746 0.017660983114421425 -0.012052142887453484 0 -0.012052142887453484 0.027971422770052275 0 0 0 0.011408101471118422 0.014845794464538094 -0.011184667373291719 0 -0.011184667373291719 0.01970610163099739 0 0 0 0.0086379740238838702 0.022157622395882225 -0.0096604854875364625 0 -0.0096604854875364625 0.022653082627958045 0 0 0 0.011202676255960067 0.015420116724489893 -0.0055629858143139716 0 -0.0055629858143139716 0.011759652711519511 0 0 0 0.0067949423590023513 0.017517816786457086 -0.0064445627824623458 0 -0.0064445627824623458 0.022086210646320461 0 0 0 0.0099010068581943857 0.016883940446757718 -0.0044883784304805439 0 -0.0044883784304805439 0.013869485682757629 0 0 0 0.0076883565323788332 0.016032156980376321 0.00013561610646673096 0 0.00013561610646673096 0.011895794786035944 0 0 0 0.0069819879416030605 0.01468814811256295 4.6630194703206444e-05 0 4.6630194703206444e-05 0.006323929917441129 0 0 0 0.005253019507501018 0.013666277407267178 -0.0014494571232330881 0 -0.0014494571232330881 0.010386966318820131 0 0 0 0.0060133109315218241 0.016909947497155492 -0.0021111370781068581 0 -0.0021111370781068581 0.0083198413974636398 0 0 0 0.0063074472236547881 0.013762336138783526 0.0012923834259115829 0 0.0012923834259115829 0.0089690088527271533 0 0 0 0.0056828362478776699 0.0085444688103241927 0.0042688619494941583 0 0.0042688619494941583 0.0050946022604258356 0 0 0 0.0034097677676875084 0.012667776200681385 0.00062519827286148459 0 0.00062519827286148459 0.005199123014421071 0 0 0 0.0044667248037756147 0.010757066200703129 0.0045485581946027569 0 0.0045485581946027569 0.0040226538373387055 0 0 0 0.0036949300095104561 0.0087536052335800228 0.0034290156791348882 0 0.0034290156791348882 0.0024025805818921435 0 0 0 0.0027890464538680429 0.0055503199102839938 0.0066250647375154341 0 0.0066250647375154341 0.0013831784483288737 0 0 0 0.001733374589653216 0.015879290163017756 -0.00024881267122040212 0 -0.00024881267122040212 0.0082893006344199154 0 0 0 0.006042147699359417 0.015408256024018911 -0.00061677797660952783 0 -0.00061677797660952783 0.0073731577391894015 0 0 0 0.005695353440802073 0.013865814420468879 0.0024352058144015663 0 0.0024352058144015663 0.0061904774543158035 0 0 0 0.005014072968696168 0.012928930665357349 0.0019499524286036305 0 0.0019499524286036305 0.0051834503116476999 0 0 0 0.0045280952442512627 0.015669361131742301 0.00071455899005256663 0 0.00071455899005256663 0.009698609157202746 0 0 0 0.0063419925722362595 0.016488976401584955 0.0036695764507738791 0 0.0036695764507738791 0.0058261726304209248 0 0 0 0.0055787872580014683 0.019441042591872827 0.0034872215140535432 0 0.0034872215140535432 0.0097867471363979937 0 0 0 0.0073069474320677109 0.019996780845933544 0.0029289407480549137 0 0.0029289407480549137 0.0093087809815371979 0 0 0 0.0073263904568676838 0.017489418998627479 -1.4020711030956557e-05 0 -1.4020711030956557e-05 0.011692603259328128 0 0 0 0.0072955055644888991 0.017463428600606175 5.1483520521276318e-05 0 5.1483520521276318e-05 0.014420775451277259 0 0 0 0.0079710510129708534 0.01534519616147194 -0.0014945151823170695 0 -0.0014945151823170695 0.012414825317838355 0 0 0 0.0069400053698275843 0.018218520172470411 -0.0013701074099833242 0 -0.0013701074099833242 0.021028870611798676 0 0 0 0.0098118476960672753 0.018618858432658928 0.0013128025270043838 0 0.0013128025270043838 0.015660702976148921 0 0 0 0.0085698903522019622 0.014357456514549219 -0.0028736531724926494 0 -0.0028736531724926494 0.018957970861894893 0 0 0 0.0083288568441110284 0.016228537082787754 -0.0038635484881476608 0 -0.0038635484881476608 0.0245379122917503 0 0 0 0.010191612343634518 0.01493326883794256 -0.0049631696535163338 0 -0.0049631696535163338 0.017213248664076322 0 0 0 0.0080366293755047124 0.01985665550768359 0.0021218886094867854 0 0.0021218886094867854 0.033857550923956176 0 0 0 0.013428551607909948 0.015233997388190194 -0.00020006185698536176 0 -0.00020006185698536176 0.022859920063131665 0 0 0 0.0095234793628304684 0.017418956047670443 -0.0014055790674341471 0 -0.0014055790674341471 0.02820617085678815 0 0 0 0.011406281726114647 0.019083652005715938 0.0014028769733641522 0 0.0014028769733641522 0.017435757770352583 0 0 0 0.0091298524440171329 0.020551763178392954 0.0033240613523564358 0 0.0033240613523564358 0.023010160544071699 0 0 0 0.010890480930616168 0.020683197560928443 0.003112846484141148 0 0.003112846484141148 0.022889888112392232 0 0 0 0.010893271418330158 0.022286837015734289 0.0041077943947689655 0 0.0041077943947689655 0.013025402494068018 0 0 0 0.0088280598774505784 0.022203216110780112 0.0044651888705891773 0 0.0044651888705891773 0.013773692297379632 0 0 0 0.0089942271020399412 0.02560860621222372 0.0059951989432956102 0 0.0059951989432956102 0.010626819873280374 0 0 0 0.0090588565213760262 0.024929568692822847 0.0056271804286610102 0 0.0056271804286610102 0.0063882788210804856 0 0 0 0.0078294618784758348 0.022424608461121431 0.004137790881004735 0 0.004137790881004735 0.0031230103111013728 0 0 0 0.0063869046930556984 0.021992299730086561 0.0050369035567265404 0 0.0050369035567265404 0.0072944281154200055 0 0 0 0.0073216819613766415 0.022840980458732785 0.0041784276701491256 0 0.0041784276701491256 0.0074256016102912971 0 0 0 0.0075666455172560274 0.017590493293354263 0.0023750779407107321 0 0.0023750779407107321 0.0066336562266702467 0 0 0 0.0060560373800061223 0.017565858066914082 0.0045766739216441298 0 0.0045766739216441298 0.0037051436650032965 0 0 0 0.0053177504329793438 0.019972888007589465 0.0045982488003747917 0 0.0045982488003747917 0.0039345445496065216 0 0 0 0.0059768581392989958 0.020605205505198017 0.0045353130086379784 0 0.0045353130086379784 0.006439169645615573 0 0 0 0.0067610937877034009 0.020953341864683638 0.0042797874030828372 0 0.0042797874030828372 0.0021735075023327985 0 0 0 0.0057817123417541099 0.02068038926919645 0.0052699297157264638 0 0.0052699297157264638 0.0014255488291005126 0 0 0 0.0055264845245742364 0.017063458916064499 0.0049709843832366346 0 0.0049709843832366346 0.0016315605967428606 0 0 0 0.004673754878201839 0.023412479402051919 0.0049157010883538344 0 0.0049157010883538344 0.0010708245159279338 0 0 0 0.0061208259794949659 0.023232040069304766 0.0038571410479245885 0 0.0038571410479245885 0.00090993264499475597 0 0 0 0.0060354931785748809 0.026134143217807326 0.0045715619740872085 0 0.0045715619740872085 0.0017546971712447922 0 0 0 0.006972210097263034 0.02441781826873311 0.0039549457469210889 0 0.0039549457469210889 0.001522787912935978 0 0 0 0.0064851515454172771 0.023133406778502973 0.0050604781209811957 0 0.0050604781209811957 0.0031628589742811819 0 0 0 0.0065740664381960402 0.0052078084341181888 0.0060440046622243383 0 0.0060440046622243383 0.0026151811708525277 0 0 0 0.0019557474012426804 0.010101376226563794 0.0050551981559977775 0 0.0050551981559977775 0.00096809489201677562 0 0 0 0.0027673677796451433 0.0053522904823037473 0.0064989225261222749 0 0.0064989225261222749 0.00096005780557413718 0 0 0 0.0015780870719694709 0.013106771665601296 0.0044528231322515863 0 0.0044528231322515863 0.00046413532848856021 0 0 0 0.0033927267485224701 0.010935567519901667 0.0052665061614348583 0 0.0052665061614348583 0.0035853898373016321 0 0 0 0.0036302393393008222 0.013599907669303652 0.0046050425080931909 0 0.0046050425080931909 0.0026818656119726794 0 0 0 0.0040704433203190794 0.015041459433512802 0.0028122293733473169 0 0.0028122293733473169 0.0031937611373302199 0 0 0 0.0045588051427107572 0.015057033484889751 0.0055379486283646424 0 0.0055379486283646424 0.0044175525541974153 0 0 0 0.0048686465097717915 0.016621738963263806 0.0041905066285016354 0 0.0041905066285016354 0.001164285831276847 0 0 0 0.0044465061986351598 0.013995943059251215 0.0046128397324587712 0 0.0046128397324587712 0.0017130198387421483 0 0 0 0.0039272407244983418 0.01676036706766635 0.0058547841876708459 0 0.0058547841876708459 0.00066907762790438877 0 0 0 0.0043573611738926838 0.011976193025718725 0.0063141965218708983 0 0.0063141965218708983 0.0019048214996818698 0 0 0 0.003470253631350147 0.011117910403428856 0.0057884390842554458 0 0.0057884390842554458 0.00034553433073310907 0 0 0 0.0028658611835404874 0.0059899850234171855 0.0062716609996472713 0 0.0062716609996472713 0.00048929351336659405 0 0 0 0.0016198196341959447 0.0050990527933730025 0.0076206625090197225 0 0.0076206625090197225 -9.5863040622722051e-05 0 0 0 0.001250797438187571 0.0051648380604198381 0.0065210830250842216 0 0.0065210830250842216 0.00017166470383005866 0 0 0 0.0013341256910624748 0.00049035758844496319 0.0079783531851968636 0 0.0079783531851968636 -0.00018335778033325145 0 0 0 7.6749952027926199e-05 0.0034290934051501454 0.0086162583531266546 0 0.0086162583531266546 -0.00029014703199250016 0 0 0 0.00078473659328941008 -9.2750902838206056e-05 0.0075111540949006055 0 0.0075111540949006055 0.00049545512008636328 0 0 0 0.00010067605431204191 0.0038675962262239155 0.0064552940093088006 0 0.0064552940093088006 -0.0002851672233989723 0 0 0 0.00089560725070623494 0.0085151347888667416 0.0075467215186801988 0 0.0075467215186801988 0.00016933106308611098 0 0 0 0.002171116462988211 0.0077229324136092094 0.0065986823023135898 0 0.0065986823023135898 0.00054125888842449649 0 0 0 0.0020660478255084252 0.009262607982213452 0.0078483571697349555 0 0.0078483571697349555 0.00036521010640498848 0 0 0 0.0024069545221546097 0.012044434563297512 0.0055473565646101805 0 0.0055473565646101805 0.00038667214598452071 0 0 0 0.0031077766773205092 0.012779471081217682 0.0061847226570433313 0 0.0061847226570433313 0.0011571666150866286 0 0 0 0.0034841594240760752 0.016278519494600227 0.0063885376134197782 0 0.0063885376134197782 0.00037332853270817534 0 0 0 0.0041629620068271006 0.012866823290383984 0.0058222160989241899 0 0.0058222160989241899 0.0023600391278540012 0 0 0 0.0038067156045594958 0.01105770089772129 0.0081265450159598625 0 0.0081265450159598625 0.0013256990119014968 0 0 0 0.0030958499774056967 0.0096703954467947332 0.0070640487968443334 0 0.0070640487968443334 0.0032234744491944634 0 0 0 0.0032234674739972991 0.0057922638977782369 0.0093086576418263331 0 0.0093086576418263331 0.00037141260199123963 0 0 0 0.0015409191249423698 0.0035246598732745328 0.007692399860953947 0 0.007692399860953947 0.0011736168451188368 0 0 0 0.0011745691795983426 2.8668863392688863e-05 0.009940707644889947 0 0.009940707644889947 -0.00084605052627583638 0 0 0 -0.0002043454157207884 0.022705436177764639 0.0037687592743909514 0 0.0037687592743909514 0.0017851120524648677 0 0 0 0.0061226370575573801 0.023525712785188391 0.0042197794728356108 0 0.0042197794728356108 0.00082088941952405611 0 0 0 0.0060866505511781091 0.020254817005513709 0.0047607682220211448 0 0.0047607682220211448 0.0010941879017628848 0 0 0 0.0053372512268191489 0.020244109808549168 0.0051484832558583767 0 0.0051484832558583767 0.00057594397354815592 0 0 0 0.0052050134455243324 0.016883364298187875 0.0052977284623504642 0 0.0052977284623504642 0.0017849229287591507 0 0 0 0.0046670718067367556 0.019085156890757227 0.0051289886029899541 0 0.0051289886029899541 0.00208011238222831 0 0 0 0.0052913173182463852 0.015108189143025834 0.0060005600611903187 0 0.0060005600611903187 0.0050331692606074519 0 0 0 0.005035339600908322 0.015205530245414838 0.0067954506552763225 0 0.0067954506552763225 0.0029739613124060839 0 0 0 0.0045448728894552292 0.018301460578510932 0.0051818030135313258 0 0.0051818030135313258 0.006099661679756503 0 0 0 0.0061002805645668581 0.018502320542771723 0.0051168951847451512 0 0.0051168951847451512 0.0031577347877572697 0 0 0 0.0054150138326322494 0.022394549369846535 0.0034704569594012605 0 0.0034704569594012605 0.0037255707105607666 0 0 0 0.0065300300201018256 0.020660779588316091 0.0044331884644840426 0 0.0044331884644840426 0.0014735282276505119 0 0 0 0.0055335769539916523 0.019942126604887558 0.0041671130109712838 0 0.0041671130109712838 0.0034983301491764776 0 0 0 0.005860114188516008 0.020384720699074144 0.0040214383867219041 0 0.0040214383867219041 0.006794139423771192 0 0 0 0.0067947150307113343 0.021634712994613628 0.0024299815229351452 0 0.0024299815229351452 0.0027756319649887883 0 0 0 0.0061025862399006047 0.023343477780507597 0.0011019817994959058 0 0.0011019817994959058 0.0077762436212490717 0 0 0 0.0077799303504391673 0.02132118285290719 0.00035988979410503012 0 0.00035988979410503012 0.0019739098169694823 0 0 0 0.0058237731674691678 0.024960598378432865 0.00026419782689596742 0 0.00026419782689596742 0.0028875548047837909 0 0 0 0.0069620382958041635 0.024702975719002103 0.0016800336728774712 0 0.0016800336728774712 0.0018500281955486125 0 0 0 0.0066382509786376805 0.025254628149085339 0.0024503267756021394 0 0.0024503267756021394 0.0011483111581740615 0 0 0 0.0066007348268148523 0.024085985071041132 0.0011968942156274347 0 0.0011968942156274347 0.00015640530990851712 0 0 0 0.0060605975952374132 0.027091300058448248 0.0013187301519767614 0 0.0013187301519767614 0.0010991428427089616 0 0 0 0.0070476107252892993 0.025228960425493111 0.0022312946764900393 0 0.0022312946764900393 -0.00067977864419622308 0 0 0 0.0061372954453242194 0.025931498842903848 0.00015897179994209818 0 0.00015897179994209818 -0.0019147239803964013 0 0 0 0.0060041937156268621 0.023923175811230504 -0.0027327013176026145 0 -0.0027327013176026145 -0.0023897093636192912 0 0 0 0.0053833666119028033 0.025299656966355773 -0.00094541445074240987 0 -0.00094541445074240987 0.00034749936104435612 0 0 0 0.0064117890818500348 0.024057813531743664 -0.00070200950829540465 0 -0.00070200950829540465 0.00091320840791089342 0 0 0 0.0062427554849136414 0.023042772828800628 -0.00087038693160362585 0 -0.00087038693160362585 0.0076822882512234975 0 0 0 0.0076812652700060319 0.022612300958267471 -0.0027035106552261304 0 -0.0027035106552261304 0.007531396450309466 0 0 0 0.0075359243521442359 0.020936484704069724 -0.0023750808544191759 0 -0.0023750808544191759 0.0022159418165862616 0 0 0 0.0057881066301639977 0.018805499684754173 -0.0054178369528772134 0 -0.0054178369528772134 0.0062669294214712625 0 0 0 0.0062681072765563579 0.022721484497357058 -0.0032798315344857148 0 -0.0032798315344857148 0.0018444800132847551 0 0 0 0.0061414911276604532 0.017997830620522549 -0.0054364977093097639 0 -0.0054364977093097639 -5.453557296920819e-05 0 0 0 0.0044858237618883362 0.011511544019791506 -0.0079060459323386702 0 -0.0079060459323386702 0.003833589982823541 0 0 0 0.0038362835006537622 0.012543782532931095 -0.0089779163816770882 0 -0.0089779163816770882 -0.0017899507035560036 0 0 0 0.0026884579573437728 0.0056740043926302441 -0.011489530867002915 0 -0.011489530867002915 -0.0025882561510170293 0 0 0 0.0007714370604033037 0.012280995365604572 -0.009051954627210727 0 -0.009051954627210727 -0.004531295467247981 0 0 0 0.0019374249745891473 0.014731142240930278 -0.0068482771495626347 0 -0.0068482771495626347 -0.0027351628756320974 0 0 0 0.0029989948413245478 0.018247735113116937 -0.0056893191276309804 0 -0.0056893191276309804 -0.00041099336365003425 0 0 0 0.0044591854373667254 0.009685963710793704 -0.0083814103233834716 0 -0.0083814103233834716 -0.0024808353323489407 0 0 0 0.0018012820946111917 0.018021966825618938 -0.0058817698879813311 0 -0.0058817698879813311 -0.00281221988532427 0 0 0 0.003802436735073667 0.023565526441714779 -0.0035285243391765374 0 -0.0035285243391765374 -0.0037490714779447 0 0 0 0.0049541137409425179 0.024696205336088795 -0.0018616282849702294 0 -0.0018616282849702294 -0.0012252925678412161 0 0 0 0.0058677281920618968 0.025574366702772487 -0.0025595800330472087 0 -0.0025595800330472087 -0.0022273075681767378 0 0 0 0.0058367647836489369 0.025079677794589601 -0.0022878796937914913 0 -0.0022878796937914913 -0.0035958609036947677 0 0 0 0.0053709542227237108 0.03064522455912112 -0.00019538812091004403 0 -0.00019538812091004403 -0.0025626701783429983 0 0 0 0.0070206385951945317 0.020585085299525456 -0.0062352404379206437 0 -0.0062352404379206437 -0.0050587527348147851 0 0 0 0.003881583141177666 0.015858669634239594 -0.0086936208987682326 0 -0.0086936208987682326 -0.0044431519570661965 0 0 0 0.0028538794192933502 0.020438962873171679 -0.0058769117716099706 0 -0.0058769117716099706 -0.0040529982821048763 0 0 0 0.0040964911477666963 0.022004538921747262 -0.0039691779624857742 0 -0.0039691779624857742 -0.0030973213621418132 0 0 0 0.0047268043899013588 0.012289475397211416 -0.0085507106049948021 0 -0.0085507106049948021 -0.0053758206215633302 0 0 0 0.0017284136939120232 0.020667411624629019 -0.0088582372025187602 0 -0.0088582372025187602 -0.0053286536425992889 0 0 0 0.0038346894955074307 0.024649221443263945 -0.0065845415126544894 0 -0.0065845415126544894 -0.0030947685901859465 0 0 0 0.0053886132132694997 0.023111807287645624 -0.0054902491186097175 0 -0.0054902491186097175 -0.0039236055808623124 0 0 0 0.0047970504266958303 0.033051513480735276 -0.0020520725122277791 0 -0.0020520725122277791 -0.00082934541380857247 0 0 0 0.0080555420167316757 0.024496358569305633 -0.008170443635809866 0 -0.008170443635809866 -0.0013726045238014592 0 0 0 0.0057809385113760346 0.023932270739297972 -0.0078361003805857508 0 -0.0078361003805857508 -0.0016828875810895941 0 0 0 0.0055623457895520919 0.02849746957941143 -5.559762573371797e-05 0 -5.559762573371797e-05 -0.0014062972570159401 0 0 0 0.0067727930805988696 0.029340505497108989 -0.003990162040655526 0 -0.003990162040655526 -0.0030998329711521082 0 0 0 0.0065601681314892222 0.032990474083747327 0.00055566081523015956 0 0.00055566081523015956 -0.0017647949355609849 0 0 0 0.007806419787046587 0.037760372516869825 0.0034947806620008424 0 0.0034947806620008424 0.0031380960961665469 0 0 0 0.010224617153259088 0.032412333998685094 0.0042321683184763734 0 0.0042321683184763734 0.0031967522455254721 0 0 0 0.0089022715610526451 0.033926430464870309 0.0036320090844350617 0 0.0036320090844350617 0.0041674986155714015 0 0 0 0.0095234822701104095 0.031036780685615734 0.0025623591041673767 0 0.0025623591041673767 -0.00020854075794469931 0 0 0 0.0077070599819177629 0.030946639153130645 0.0050830610691883771 0 0.0050830610691883771 0.0030671192375969318 0 0 0 0.0085034395976818951 0.032013704264788043 0.0065335678519153374 0 0.0065335678519153374 0.0078956650209475628 0 0 0 0.0099773423214339005 0.029471761629596256 0.0044496299761526553 0 0.0044496299761526553 0.0037818779202827921 0 0 0 0.0083134098874697564 0.028929497188486902 0.0065001266954590733 0 0.0065001266954590733 0.0080412661078349823 0 0 0 0.0092426908240804719 0.026172128605931273 0.0049107715840537858 0 0.0049107715840537858 0.0036165372134623055 0 0 0 0.0074471664548483949 0.025547720355208609 0.0045391491897814728 0 0.0045391491897814728 0.0034930805073718658 0 0 0 0.0072602002156451203 0.02784899227218423 0.0032560198324607346 0 0.0032560198324607346 0.00054536976333516805 0 0 0 0.0070985905088798464 0.028867285619687436 0.004074353816701945 0 0.004074353816701945 0.0015487719179579796 0 0 0 0.0076040143844113561 0.025479796962954791 0.0030163251798524327 0 0.0030163251798524327 -0.00025251809706366979 0 0 0 0.0063068197164727856 0.028421501890430169 0.0025475155018621692 0 0.0025475155018621692 0.00044064773703936374 0 0 0 0.007215537406867382 0.026569083921581551 0.001391261781527966 0 0.001391261781527966 -0.0014494947029019588 0 0 0 0.0062798973046698974 0.028046214115377478 0.00083609730828565444 0 0.00083609730828565444 -0.00080859387737579553 0 0 0 0.0068094050595004212 0.027476646979499447 -0.0013841063789747023 0 -0.0013841063789747023 -0.0021726009854061146 0 0 0 0.0063260114985233366 0.028559238744972845 0.0021216526483289659 0 0.0021216526483289659 -0.00035525019584121964 0 0 0 0.0070509971372829088 0.030455424448977499 0.0024424842723487971 0 0.0024424842723487971 -0.00061593136904213161 0 0 0 0.0074598732699838423 -0.051563958128793497 -0.0035179927733513319 0 -0.0035179927733513319 -0.0021017175997085653 0 0 0 -0.013416418932125519 -0.036086610720868148 -0.0094225095250447463 0 -0.0094225095250447463 -0.0010066340940934199 0 0 0 -0.0092733112037403989 -0.040114524720060427 -0.0044146598819436193 0 -0.0044146598819436193 -0.00029246258609166506 0 0 0 -0.010101746826538024 -0.03544820777869441 -0.00632704367866266 0 -0.00632704367866266 0.0027691051964554049 0 0 0 -0.0081697756455597539 -0.032153312839551876 -0.0041758769525406421 0 -0.0041758769525406421 0.0023731431762763766 0 0 0 -0.0074450424158188765 -0.03192014737965744 -0.0026500757395588334 0 -0.0026500757395588334 -0.0038054668896889045 0 0 0 -0.0089314035673365849 -0.029929661421298142 -0.0034917934872030014 0 -0.0034917934872030014 -0.0099568550844012262 0 0 0 -0.009971629126424842 -0.030448248936600433 -0.004785572927016913 0 -0.004785572927016913 -0.0041149724844669229 0 0 0 -0.0086408053552668382 -0.029662109903853554 -0.0084055174615842599 0 -0.0084055174615842599 -0.0027722223599538319 0 0 0 -0.0081085830659518455 -0.026786136029756331 -0.0087708778730422095 0 -0.0087708778730422095 -0.0017216695485504762 0 0 0 -0.0071269513945767041 -0.023042368524242265 -0.0088344261426770848 0 -0.0088344261426770848 -0.0076850348116786274 0 0 0 -0.0076818508339802222 -0.023037212957574296 -0.0088378327829677344 0 -0.0088378327829677344 -0.0076686546486166851 0 0 0 -0.0076764669015477452 -0.025739959976454251 -0.010471440695961533 0 -0.010471440695961533 -0.0031319390996248017 0 0 0 -0.0072179747690197683 -0.017609875465970842 -0.010734718676512288 0 -0.010734718676512288 -0.00098431129353437896 0 0 0 -0.0046485466898763053 -0.029089459186909822 -0.0097263506021963327 0 -0.0097263506021963327 0.0004906226287814848 0 0 0 -0.0071497091395320853 -0.041796066960357287 -0.0096951291322328742 0 -0.0096951291322328742 -0.001577652280783489 0 0 0 -0.010843429810285191 -0.01679100391366125 -0.012839051358409705 0 -0.012839051358409705 -0.00064092022185785122 0 0 0 -0.0043579810338797795 -0.030892313176219609 -0.01174213046348547 0 -0.01174213046348547 -0.0028068921232161786 0 0 0 -0.0084248013248589444 -0.014812114632452963 -0.010890152010530342 0 -0.010890152010530342 -0.002393649327483966 0 0 0 -0.0043014409899842336 -0.011717523887662666 -0.011133635893542739 0 -0.011133635893542739 -0.0038447926139401206 0 0 0 -0.0038905791254006949 -0.014738981648452214 -0.013514818464317409 0 -0.013514818464317409 -0.0027218303437926369 0 0 0 -0.0043652029980612095 -0.013329780064548206 -0.012440006867425978 0 -0.012440006867425978 -0.001552384085192697 0 0 0 -0.0037205410374352259 -0.014189048778212266 -0.011809338068373698 0 -0.011809338068373698 -0.0037712930777315727 0 0 0 -0.0044900854639859603 -0.0059499977286395743 -0.010252662462066239 0 -0.010252662462066239 -0.0019890696186273611 0 0 0 -0.0019847668368167346 -0.005387915654728204 -0.012197049744517827 0 -0.012197049744517827 -0.0032799520082520198 0 0 0 -0.0021669669157450555 -0.0025163230252654278 -0.0096943075519773034 0 -0.0096943075519773034 -0.001330061668516621 0 0 0 -0.00096159617344551349 -0.002967408898341458 -0.012964372698854212 0 -0.012964372698854212 -0.0026176457661678532 0 0 0 -0.0013962636661273269 0.0030991975472090373 -0.0096312187239105517 0 -0.0096312187239105517 0.0010341415511592813 0 0 0 0.0010333347745920796 0.0083717804583953795 -0.008006292384486767 0 -0.008006292384486767 -0.00063111207158355036 0 0 0 0.0019351670967029571 0.003534264050707666 -0.012250009110788176 0 -0.012250009110788176 -0.0038071419311845045 0 0 0 -6.8219470119208758e-05 0.00031098556132315783 -0.01199924167602578 0 -0.01199924167602578 -0.0038383433545097004 0 0 0 -0.00088183944829663477 0.00083142138732599999 -0.0097257797316844807 0 -0.0097257797316844807 -0.0034005592873133771 0 0 0 -0.00064228447499684732 0.0082964894477557775 -0.011759971055993187 0 -0.011759971055993187 -0.0062427093664286434 0 0 0 0.00051344502033178266 0.012939737990847638 -0.0093624719506709125 0 -0.0093624719506709125 -0.0039597216191310253 0 0 0 0.002245004092929151 0.0011644697243428162 -0.013705665652227359 0 -0.013705665652227359 -0.0060248968149640286 0 0 0 -0.0012151067726553014 0.012335909558614461 -0.011543243281545519 0 -0.011543243281545519 -0.0053112303129652857 0 0 0 0.0017561698114122934 0.0018683426082347523 -0.01171037059281196 0 -0.01171037059281196 -0.0010197471081401059 0 0 0 0.00021214887502366128 -0.0026103565592989993 -0.015435182838722323 0 -0.015435182838722323 -0.0040864458128143429 0 0 0 -0.0016742005930283359 0.011232884287355959 -0.010326836383604271 0 -0.010326836383604271 -0.0019808036648788427 0 0 0 0.0023130201556192821 -0.0021248546999732328 -0.013954548213671192 0 -0.013954548213671192 -0.0021938054019385242 0 0 0 -0.001079665025477938 0.00017585107772699528 -0.016529089658576645 0 -0.016529089658576645 -0.00080278052584797054 0 0 0 -0.00015673236203024403 -0.017832070108852051 -0.014162530389275103 0 -0.014162530389275103 -0.004756080912271976 0 0 0 -0.0056470377552810128 -0.016112928027397701 -0.015309688301073886 0 -0.015309688301073886 -0.0032442264928355322 0 0 0 -0.0048392886300583082 -0.01733798122624388 -0.012471449233977999 0 -0.012471449233977999 -0.0012121886839434326 0 0 0 -0.0046375424775468264 -0.0014429382810353178 -0.012037082364217237 0 -0.012037082364217237 -0.0019362477211820814 0 0 0 -0.00084479650055434632 -0.010597687115737166 -0.013704325592950766 0 -0.013704325592950766 -0.0043967783259852566 0 0 0 -0.0037486163604306053 -0.027920405485384613 -0.012866452471558966 0 -0.012866452471558966 -0.00254466340925983 0 0 0 -0.007616267223661103 -0.026303348701268485 -0.011829121921413891 0 -0.011829121921413891 0.00099155383935586178 0 0 0 -0.0063279487154781506 -0.036893285951536244 -0.010741447581882523 0 -0.010741447581882523 0.00010983868583026163 0 0 0 -0.009195861816426492 -0.02807412862721833 -0.016029859119203627 0 -0.016029859119203627 -4.1017255564754218e-05 0 0 0 -0.0070287864706957666 -0.035064567095650472 -0.011929617746107296 0 -0.011929617746107296 -0.0027149866903599315 0 0 0 -0.0094448884465026025 -0.019237703737062229 -0.017900129140786668 0 -0.017900129140786668 -0.00020847038094248468 0 0 0 -0.0048615435295011776 -0.035090614538228163 -0.014022503821560454 0 -0.014022503821560454 0.0016833039230587186 0 0 0 -0.0083518276537923632 -0.055254061375577125 -0.0097476118547860161 0 -0.0097476118547860161 -0.0027716412733873597 0 0 0 -0.014506425662241121 -0.059172631787617426 -0.011187418709350087 0 -0.011187418709350087 -0.00098470666811333041 0 0 0 -0.015039334613932713 -0.073514489888227022 -0.0064177685570509287 0 -0.0064177685570509287 -0.00026049753222317368 0 0 0 -0.018443746855112544 -0.052497018406734312 -0.0051235648676498848 0 -0.0051235648676498848 0.00024804649261077685 0 0 0 -0.0130622429785309 -0.062016187320806097 -0.0059949704426703341 0 -0.0059949704426703341 -0.00046188359659624003 0 0 0 -0.015619517729350593 -0.038099922342971396 -0.011753503971059042 0 -0.011753503971059042 -0.00042529382142524226 0 0 0 -0.0096313040410991591 -0.051857237346685327 -0.0045377262616248457 0 -0.0045377262616248457 -0.0027848466645180661 0 0 0 -0.013660521002800848 -0.039132607826643503 -0.0079076694293453553 0 -0.0079076694293453553 0.0019695106692537937 0 0 0 -0.0092907742893474331 -0.075689517621763902 -0.0051420239819645955 0 -0.0051420239819645955 0.0039955112333321455 0 0 0 -0.017923501597107951 -0.11044480269508758 1.9262523952651156e-05 0 1.9262523952651156e-05 0.000727550910702493 0 0 0 -0.027429312946096275 -0.070753861438110147 -0.011848022436205426 0 -0.011848022436205426 0.0044179874788139728 0 0 0 -0.016583968489824026 -0.068454278743988448 -0.0017730217702086326 0 -0.0017730217702086326 0.0026305089830341022 0 0 0 -0.016455942440238611 -0.096744837875623102 -0.0043554537481914068 0 -0.0043554537481914068 0.0018521630705606584 0 0 0 -0.023723168701265587 -0.083724255291833916 -0.0057810077753060168 0 -0.0057810077753060168 0.00014835702504472151 0 0 0 -0.020893974566697303 -0.056786182594676771 -0.006258867973602587 0 -0.006258867973602587 0.0012481499516581018 0 0 0 -0.013884508160754674 -0.064915564620202523 -0.0050329233050064514 0 -0.0050329233050064514 0.0012681162852880446 0 0 0 -0.01591186208372862 -0.062166279207184441 -0.013317158046637488 0 -0.013317158046637488 0.0029039771567122771 0 0 0 -0.014815575512618044 -0.036491459467654225 -0.01376796772042878 0 -0.01376796772042878 0.0032814111346512048 0 0 0 -0.0083025120832507585 -0.03749978414030667 -0.013673091848302071 0 -0.013673091848302071 2.1234892015661172e-05 0 0 0 -0.0093696373120727514 -0.024903751540733505 -0.013224444288387977 0 -0.013224444288387977 -0.0033378312945671279 0 0 0 -0.0070603957088251554 -0.036222118236089389 -0.017797776269648929 0 -0.017797776269648929 0.0065596462329140237 0 0 0 -0.0074156180007938569 -0.047811330710123778 -0.0081788951321075665 0 -0.0081788951321075665 0.0022391009617216129 0 0 0 -0.011393057437100529 -0.03889824154652715 -0.0048729772524489651 0 -0.0048729772524489651 0.0066658569176164303 0 0 0 -0.0080580961572276691 -0.0079085307661643199 -0.013176561807532551 0 -0.013176561807532551 0.008734646546294092 0 0 0 0.00020652894503243868 -0.0038807979652731792 -0.011071841307118885 0 -0.011071841307118885 0.019990432051717938 0 0 0 0.004027408521611188 0.0091926916722865799 -0.01680289702716041 0 -0.01680289702716041 0.0067590488997417431 0 0 0 0.0039879351430070833 -0.028975581483309507 -0.011547920294192014 0 -0.011547920294192014 0.0087837001407631288 0 0 0 -0.0050479703356365868 -0.011428739814994397 -0.016658409036154311 0 -0.016658409036154311 0.0042920267263546839 0 0 0 -0.0017841782721599257 -0.027864484194029565 -0.018495509941561076 0 -0.018495509941561076 0.0019678824337255665 0 0 0 -0.0064741504400759927 -0.012790028592709144 -0.019391029938906391 0 -0.019391029938906391 -0.0011008554356673785 0 0 0 -0.0034727210070941298 -0.0095086073521540408 -0.014246945237543702 0 -0.014246945237543702 0.001502987003037512 0 0 0 -0.0020014050872791357 0.0048123909942439976 -0.017530276943642446 0 -0.017530276943642446 0.0020770494422617004 0 0 0 0.0017223601091264258 -0.010564597552370504 -0.013638815521155864 0 -0.013638815521155864 0.005090701459387198 0 0 0 -0.0013684740232458217 0.0058447374303253734 -0.012223845178332355 0 -0.012223845178332355 0.0024956032655937808 0 0 0 0.0020850851739797889 0.021500527059726035 -0.015140121867188255 0 -0.015140121867188255 0.0031258639040236888 0 0 0 0.0061565977409374379 0.01455111164523494 -0.0149812812046476 0 -0.0149812812046476 -0.00050909975889707436 0 0 0 0.0035105029715844691 0.028627018647704863 -0.011638853252596993 0 -0.011638853252596993 0.0011234455603860473 0 0 0 0.007437616052022724 0.014953796684648088 -0.0098316272196193842 0 -0.0098316272196193842 -0.00061760685104659575 0 0 0 0.0035840474584003736 0.022809034393216715 -0.0082266078283221161 0 -0.0082266078283221161 0.0066667160047002641 0 0 0 0.0073689375994792482 0.038027287631901718 -0.01231153090816255 0 -0.01231153090816255 0.0097405651978693802 0 0 0 0.011941963207442775 0.011296335530045755 -0.011266216167482121 0 -0.011266216167482121 0.01208136129790742 0 0 0 0.0058444242069882954 0.030668104870592065 -0.014231487881761623 0 -0.014231487881761623 0.013943333719682829 0 0 0 0.011152859647568729 0.030455203395686664 -0.0064333441416742545 0 -0.0064333441416742545 0.020263096341768455 0 0 0 0.01267957493436378 0.048171615046845646 -0.0017098844823387159 0 -0.0017098844823387159 0.039284395895436558 0 0 0 0.021864002735570563 0.053232632395893285 -0.01256242036758267 0 -0.01256242036758267 0.029585415544704258 0 0 0 0.020704511985149394 0.018476416988263009 -0.0065047008713362067 0 -0.0065047008713362067 0.024865833871276138 0 0 0 0.010835562714884783 0.0098808686387420672 -0.017196110295593356 0 -0.017196110295593356 0.026872039661203467 0 0 0 0.0091882270749863854 0.036591096514066043 -0.016990957223468585 0 -0.016990957223468585 0.055239010669161148 0 0 0 0.022957526795806801 0.053311511921458429 -0.0091732660275480674 0 -0.0091732660275480674 0.10159178446846268 0 0 0 0.038725824097480252 0.056353015152438131 0.016079964544911868 0 0.016079964544911868 0.08779853590108315 0 0 0 0.036037887763380329 0.048130904351247505 0.013809811296783773 0 0.013809811296783773 0.10715693435802998 0 0 0 0.038821959677319384 0.036066101801952299 0.011877194920097811 0 0.011877194920097811 0.067864686050264189 0 0 0 0.025982696963054164 0.01924350784726106 -0.0052378781399368898 0 -0.0052378781399368898 0.05098350796123885 0 0 0 0.01755675395212497 0.030920086819183065 0.0030570424506879412 0 0.0030570424506879412 0.054349966145286976 0 0 0 0.021317513241117494 0.0096800549697569904 0.020573755708301084 0 0.020573755708301084 0.058735546943842407 0 0 0 0.017103900478399839 -0.004965109681444424 0.011193072214249256 0 0.011193072214249256 0.032437753474657494 0 0 0 0.0068681609483032813 -0.019515487402471512 0.015295245664928597 0 0.015295245664928597 0.040781098094848978 0 0 0 0.0053164026730943698 -0.010379311831129084 -0.0034952087524879518 0 -0.0034952087524879518 0.01885881596461525 0 0 0 0.0021198760333715483 -0.026742520919393595 0.0013202911567428977 0 0.0013202911567428977 0.019636524624652762 0 0 0 -0.0017764990736851977 -0.00078506616587945 -0.0014438516125139383 0 -0.0014438516125139383 0.048204516929589519 0 0 0 0.011854862690927531 -0.026090126165937672 -0.013615290071701106 0 -0.013615290071701106 0.021522916092522854 0 0 0 -0.0011418025183537184 -0.049895134059113652 -0.011413142403186437 0 -0.011413142403186437 0.0093231509564535853 0 0 0 -0.010142995775665006 -0.052618310985174901 0.0012247274160968394 0 0.0012247274160968394 0.0093087103672260807 0 0 0 -0.010827400154487216 -0.035974272494650766 -0.0076139572238679842 0 -0.0076139572238679842 0.017406383209155496 0 0 0 -0.0046419723213738107 -0.046321504731223616 0.010803924035736684 0 0.010803924035736684 0.01812030885560114 0 0 0 -0.0070502989689056259 -0.029677302867044175 0.0082961131918659059 0 0.0082961131918659059 0.01202798869470989 0 0 0 -0.0044123285430835435 -0.058366525595848623 0.016331562502476138 0 0.016331562502476138 0.0090613567756652399 0 0 0 -0.012326292205045861 -0.047609156845049072 0.0099768608130390568 0 0.0099768608130390568 0.022142018687504206 0 0 0 -0.0063667845393862166 -0.052844643306454997 0.0018838380607405919 0 0.0018838380607405919 0.0083316036177735198 0 0 0 -0.011128259922170369 -0.074228320720145957 0.0070559014081656712 0 0.0070559014081656712 0.0086618241378641492 0 0 0 -0.016391624145570438 -0.070714610472079775 0.0025058116384167883 0 0.0025058116384167883 0.0044129566893078009 0 0 0 -0.016575413445692938 -0.1084611590511811 0.0035992809318068919 0 0.0035992809318068919 0.0058419609707190401 0 0 0 -0.025654799520115526 -0.080164463799624164 -0.00061860136303076851 0 -0.00061860136303076851 0.0031257479008791611 0 0 0 -0.019259678974686278 -0.1156933328739887 -0.0023761279787332945 0 -0.0023761279787332945 0.0038092100225602665 0 0 0 -0.027971030712857087 -0.08385419067540649 0.002389546176203905 0 0.002389546176203905 0.0013039789176376715 0 0 0 -0.020637552939442153 -0.066891983277074948 -0.0071594597633960338 0 -0.0071594597633960338 0.005851402362414368 0 0 0 -0.015260145228665103 -0.08160941044163772 -0.0089218186007332043 0 -0.0089218186007332043 0.0039648438211444814 0 0 0 -0.019411141655123296 0.036765077389046615 0.011836119114075769 0 0.011836119114075769 0.022450025780114409 0 0 0 0.014803775792290245 0.039305357042006758 0.013000890645703866 0 0.013000890645703866 0.028762790820439962 0 0 0 0.01701703696561168 0.041472152068928257 0.013544404509467395 0 0.013544404509467395 0.029447002284093041 0 0 0 0.017729788588255323 0.032303787835320813 0.010780679920926279 0 0.010780679920926279 0.033956050093525397 0 0 0 0.016564959482211563 0.024571286014742896 0.006918074607729887 0 0.006918074607729887 0.035632906708371236 0 0 0 0.015051048180778539 0.027344779195205435 0.0082312494779369291 0 0.0082312494779369291 0.022669438913881929 0 0 0 0.012503554527271839 0.019682122707187149 0.0042677552031855056 0 0.0042677552031855056 0.02410976617228687 0 0 0 0.010947972219868509 0.031797455056055898 0.0099949860678099356 0 0.0099949860678099356 0.024218379711604739 0 0 0 0.014003958691915149 0.025640190980410031 0.0060956634726070987 0 0.0060956634726070987 0.014421236931969859 0 0 0 0.010015356978094974 0.025701087911816557 0.0069374175462385591 0 0.0069374175462385591 0.019725951160196424 0 0 0 0.011356759768003238 0.025747521213822136 0.0050380356842515735 0 0.0050380356842515735 0.0079777822679690524 0 0 0 0.0084313258704477954 0.029955872752975801 0.008202362782638745 0 0.008202362782638745 0.01500260187214484 0 0 0 0.011239618656280153 0.031227142858899128 0.0065828790291577264 0 0.0065828790291577264 0.0076534319881440271 0 0 0 0.0097201437117607811 0.031127475814764383 0.0079699461351958566 0 0.0079699461351958566 0.016829404493142675 0 0 0 0.011989220076976767 0.035700002283458696 0.0098079244154298285 0 0.0098079244154298285 0.014544546370164991 0 0 0 0.012561137163405914 0.037232984282227773 0.00592528853988597 0 0.00592528853988597 0.0073548003339509536 0 0 0 0.011146946154044692 0.033394062343763319 0.0051058475170196408 0 0.0051058475170196408 0.0067269424064495837 0 0 0 0.010030251187553223 0.032135827030064706 -0.0018533942600402213 0 -0.0018533942600402213 0.00053066226561487417 0 0 0 0.0081666223239199032 0.040762566860975541 0.0013631104105182798 0 0.0013631104105182798 0.0088958650096470845 0 0 0 0.012414607967655662 0.039019821966935021 0.0027687601390939155 0 0.0027687601390939155 0.0058661001005182369 0 0 0 0.011221480516863312 0.04056235381597148 0.0089603604294891687 0 0.0089603604294891687 0.014983732438051775 0 0 0 0.013886521563505814 0.030003195388988942 -0.0043084469116538293 0 -0.0043084469116538293 0.0020019486803475404 0 0 0 0.0080012860173341201 0.036895292031344812 -0.0064982645000688111 0 -0.0064982645000688111 0.0043373877505133787 0 0 0 0.010308169945464546 0.040917950279584323 -0.0004086575085549965 0 -0.0004086575085549965 0.011473353448415529 0 0 0 0.01309782593199996 0.047464469245386998 -0.0038169207497211208 0 -0.0038169207497211208 0.018599834894996628 0 0 0 0.016516076035095913 0.056467154641110719 0.0057009878674773792 0 0.0057009878674773792 0.027802506711982929 0 0 0 0.021067415338273408 0.046098984711997706 0.0092193608955774588 0 0.0092193608955774588 0.016582958444205844 0 0 0 0.015670485789050888 0.052646266801414508 0.0071740685498383463 0 0.0071740685498383463 0.015721770830452494 0 0 0 0.017092009407966742 0.046104973169986942 0.0092577545474493046 0 0.0092577545474493046 0.024667897506773936 0 0 0 0.017693217669190221 0.058941104384415126 0.011339082250300003 0 0.011339082250300003 0.027885616334609616 0 0 0 0.021706680179756192 0.050594078230757553 0.018361977656608974 0 0.018361977656608974 0.049579300243676794 0 0 0 0.025043344618608576 0.076634421250855622 0.020954570644196063 0 0.020954570644196063 0.048517245176262186 0 0 0 0.031287916606779466 0.064567391579908429 0.019026127322888619 0 0.019026127322888619 0.074494556017798835 0 0 0 0.034765486899426802 0.04878819311853904 0.020202826835587898 0 0.020202826835587898 0.074442683660031275 0 0 0 0.030807719194642581 0.056394043154143272 0.01633102640077972 0 0.01633102640077972 0.051565169291237861 0 0 0 0.026989803111345287 0.075204034437884121 -0.0026230603817136641 0 -0.0026230603817136641 0.043014906192794314 0 0 0 0.029554735157669619 0.07914233858315553 0.0080537813006892472 0 0.0080537813006892472 0.066578295776219792 0 0 0 0.03643015858984381 0.08200693581443988 -0.012643030173608155 0 -0.012643030173608155 0.057498604250473956 0 0 0 0.034876385016228452 0.1490891248889494 -0.0080703238577497366 0 -0.0080703238577497366 0.09681846734972363 0 0 0 0.061476898059668245 0.10115051198641546 -0.0030180603601082934 0 -0.0030180603601082934 0.20338390351443311 0 0 0 0.076133603875212119 0.14105611961110257 0.060733249988752666 0 0.060733249988752666 0.14663548105636071 0 0 0 0.071922900166865797 0.070473644659786144 0.033414188167504209 0 0.033414188167504209 0.12339721481772449 0 0 0 0.048467714869377655 0.034237290631101695 0.012014270208789767 0 0.012014270208789767 0.071426454526408667 0 0 0 0.026415936289377606 0.067655888730982452 0.021504839486939584 0 0.021504839486939584 0.076292609704665101 0 0 0 0.035987124608911895 0.038421259853585944 -0.016229249627818833 0 -0.016229249627818833 0.14050070400835674 0 0 0 0.044730490965485654 0.027013092338757955 -0.017177576450489673 0 -0.017177576450489673 0.075954694321895055 0 0 0 0.025741946665163232 0.027882000647749764 -0.017126094898383251 0 -0.017126094898383251 0.081749649216177389 0 0 0 0.027407912465981777 0.036296252047161304 0.011190898150481764 0 0.011190898150481764 0.076839022964744833 0 0 0 0.028283818752976531 0.034031312673669302 0.011534107246423474 0 0.011534107246423474 0.045450476653117113 0 0 0 0.019870447331696593 0.031001389812405741 0.0078479221751576768 0 0.0078479221751576768 0.069294347516198923 0 0 0 0.02507393433215117 0.020286316735960461 0.0015410018320671892 0 0.0015410018320671892 0.044417097877135783 0 0 0 0.016175853653274057 0.028362864300506215 0.0084975046333076731 0 0.0084975046333076731 0.054112631699324822 0 0 0 0.020618873999957751 0.029283078165503153 0.0099130712830402569 0 0.0099130712830402569 0.03242699576341726 0 0 0 0.015427518482230101 0.037679906505831681 0.015285325128471569 0 0.015285325128471569 0.049580423905091819 0 0 0 0.021815082602730882 0.019062874464569567 0.0038637011687870965 0 0.0038637011687870965 0.032254366604844813 0 0 0 0.012829310267353589 0.020404906544608102 0.0024739694334301467 0 0.0024739694334301467 0.043812234338811214 0 0 0 0.016054285220854825 0.024041241891656344 -0.016136401789489628 0 -0.016136401789489628 0.048869302155774411 0 0 0 0.018227636011857694 0.01707420665605458 -0.0064097697887519709 0 -0.0064097697887519709 0.042474135403224013 0 0 0 0.014887085514819647 0.014476175978898307 -0.0048976798068438888 0 -0.0048976798068438888 0.038505984790173226 0 0 0 0.013245540192267886 0.022632700366798292 -0.0010310002718051069 0 -0.0010310002718051069 0.058341167929853555 0 0 0 0.020243467074162962 0.021018846764070443 -0.01425739430993709 0 -0.01425739430993709 0.035893077330024697 0 0 0 0.014227981023523798 0.018682295572030633 -0.014920126189307329 0 -0.014920126189307329 0.027642529936121651 0 0 0 0.011581206377038064 0.031642264145380683 -0.022220168635011459 0 -0.022220168635011459 0.031569070226923679 0 0 0 0.015802833593076066 0.026475714603879555 -0.021247583307752147 0 -0.021247583307752147 0.012629218345294013 0 0 0 0.0097762332372933886 0.021044349626428968 -0.015104627112263704 0 -0.015104627112263704 0.010464509549463152 0 0 0 0.0078772147939730336 0.031809896112645744 -0.018447259837652163 0 -0.018447259837652163 0.013652870770398522 0 0 0 0.011365691720761073 0.032102519710096755 -0.01796720363579005 0 -0.01796720363579005 0.014554768048551603 0 0 0 0.011664321939662076 0.026535699607558486 -0.014253096871140583 0 -0.014253096871140583 0.001179093460998204 0 0 0 0.0069286982671391689 0.041349473236237305 -0.0097233602565890871 0 -0.0097233602565890871 0.0043409753370540205 0 0 0 0.01142261214332288 0.036628737471849908 -0.013003276904784103 0 -0.013003276904784103 -0.0038174585843437914 0 0 0 0.0082028197218765378 0.041109929760818092 -0.017172736825983179 0 -0.017172736825983179 0.0022687169416947262 0 0 0 0.010844661675628198 0.054427128266616089 -0.030752282233229733 0 -0.030752282233229733 0.025185157093124466 0 0 0 0.019903071339935137 0.022655196192284809 -0.017120745544908052 0 -0.017120745544908052 0.047243940108269891 0 0 0 0.017474784075138673 0.034380324565187401 -0.025701616936464434 0 -0.025701616936464434 0.031699485497322183 0 0 0 0.016519952515627379 0.034928972049911716 -0.027992395841413775 0 -0.027992395841413775 0.040092599582902684 0 0 0 0.018755392908203598 0.038798125181721328 -0.034335400946176937 0 -0.034335400946176937 0.066179914405085111 0 0 0 0.026244509896701594 0.024622752228387973 -0.031375052410663892 0 -0.031375052410663892 0.09151356373782224 0 0 0 0.029034078991552553 0.047410880374140943 -0.02936668477692575 0 -0.02936668477692575 0.08885107792473293 0 0 0 0.034065489574718458 0.067518150338896021 -0.010878049555989864 0 -0.010878049555989864 0.25170344199235883 0 0 0 0.079805398082813714 0.053446290030385847 -0.011892419803129863 0 -0.011892419803129863 -0.011395054467020937 0 0 0 0.010512808890841246 0.073231541675206693 -0.04643598764523052 0 -0.04643598764523052 0.05311834343684238 0 0 0 0.031587471278012286 0.13023403309648235 0.087616993081181399 0 0.087616993081181399 0.17013881063931979 0 0 0 0.075093210933950577 0.07477748380873521 -0.065314910403219684 0 -0.065314910403219684 0.1086706649907602 0 0 0 0.045862037199873848 0.0048194458448698324 0.00079222644406960838 0 0.00079222644406960838 0.013078959988363781 0 0 0 0.0044746014583084024 0.20859154832631913 0.07736061048977072 0 0.07736061048977072 0.049724910366497177 0 0 0 0.064579114673204152 0.1074948012728873 0.021703667431613616 0 0.021703667431613616 0.026158464644292501 0 0 0 0.033413316479294963 0.010967896829177218 0.0018929844319146164 0 0.0018929844319146164 0.033077324815532688 0 0 0 0.011011305411177476 0.0071557801739278448 0.0011727411539939475 0 0.0011727411539939475 0.030063838036077428 0 0 0 0.0093049045525013252 0.096649182539585807 0.018655990640185416 0 0.018655990640185416 0.026234683673040229 0 0 0 0.030720966553156467 0.015466536412100581 0.0026571974721530233 0 0.0026571974721530233 0.046231281380343936 0 0 0 0.015424454448111127 0.011036024023226579 0.0057410623443015785 0 0.0057410623443015785 0.034957531006141795 0 0 0 0.01149838875734209 0.073688695188313169 0.015016831751360149 0 0.015016831751360149 0.013910272515633038 0 0 0 0.021899741925986593 0.043593882567081979 -0.01644408009292006 0 -0.01644408009292006 -0.0067615741444535249 0 0 0 0.009208077105657124 0.037151198140600632 0.002900139878236202 0 0.002900139878236202 0.018427927720681803 0 0 0 0.013894781465320596 0.037000752383819877 -0.0071191372342894622 0 -0.0071191372342894622 0.013462207720634223 0 0 0 0.012615740026113528 0.039544779083658187 -0.0025506390450707461 0 -0.0025506390450707461 0.0039885529656309981 0 0 0 0.010883333012322277 0.027278691008678815 0.0043470506403319731 0 0.0043470506403319731 0.011064011863578777 0 0 0 0.0095856757180644153 0.033439932674539041 0.0032747586424716722 0 0.0032747586424716722 0.032662093553966765 0 0 0 0.016525506557126479 0.02378697077087992 0.0068092793562604947 0 0.0068092793562604947 0.040242669481621252 0 0 0 0.016007410063125269 0.036638984746073494 0.00092227048700642411 0 0.00092227048700642411 0.0098107657829270001 0 0 0 0.011612437632250144 0.064557442104075657 0.013265369810737442 0 0.013265369810737442 0.015020946375324584 0 0 0 0.019894597119849977 0.071328226927077187 0.0088763043657428264 0 0.0088763043657428264 0.037900396691122884 0 0 0 0.027307155904550018 0.078034091566595909 0.0076516205807319881 0 0.0076516205807319881 0.03653970558446118 0 0 0 0.028643449287764189 0.019168139447711237 0.0031676046230297719 0 0.0031676046230297719 0.057431968210537643 0 0 0 0.019150026914562225 0.066969956859365243 0.0064045658974422048 0 0.0064045658974422048 0.040370212169939412 0 0 0 0.026835042257326247 0.067456198863424022 0.0060118290201074398 0 0.0060118290201074398 0.037691175095135865 0 0 0 0.026286843489639944 0.058462871071796874 0.010987711067596662 0 0.010987711067596662 0.036960177193641863 0 0 0 0.023855762066359698 0.064451531488572633 0.0050720263337784991 0 0.0050720263337784991 0.047753367909158406 0 0 0 0.028051224849432788 0.033282035231253698 0.0073998849206351617 0 0.0073998849206351617 0.053478761912966633 0 0 0 0.021690199286055117 0.022686781108160307 0.0035303647191459748 0 0.0035303647191459748 0.067964036772825212 0 0 0 0.022662704470246382 0.060863610674002033 0.004805081371650255 0 0.004805081371650255 0.047434072798311577 0 0 0 0.02707442086807843 0.030181704993602398 0.0061733428756109432 0 0.0061733428756109432 0.02268605865369383 0 0 0 0.013216940911824043 0.031354008399712502 0.0055005018609325662 0 0.0055005018609325662 0.0080594036960648374 0 0 0 0.0098533530239443001 0.037183772517539126 0.0046585046103185535 0 0.0046585046103185535 0.043558377470715948 0 0 0 0.020185537497063755 0.035731079995886171 0.006162926128265328 0 0.006162926128265328 0.0241075419452981 0 0 0 0.014959655485296063 0.035674987761646043 0.0086276104771608464 0 0.0086276104771608464 0.028469498250026037 0 0 0 0.016036121502918013 0.029875986769632656 0.0067782201632242862 0 0.0067782201632242862 0.0047517013599228664 0 0 0 0.0086569220323889085 0.029857347729634443 0.0064020216678511987 0 0.0064020216678511987 0.0055841465823200931 0 0 0 0.0088603735779886061 0.032884674987881064 0.0038882064609580547 0 0.0038882064609580547 0.0051285128950143422 0 0 0 0.0095032969707238655 0.031121393530906122 -0.00083825112065930019 0 -0.00083825112065930019 -0.0046746189352268597 0 0 0 0.0066116936489198364 0.030413247628583967 0.0016710938507296241 0 0.0016710938507296241 -0.0039280676058995878 0 0 0 0.0066212950056711295 0.024894073969637331 0.0030637746027862012 0 0.0030637746027862012 -0.0055597703049480446 0 0 0 0.0048335759161723113 0.028247169460177773 0.00075373407033285655 0 0.00075373407033285655 -0.00079493687644205391 0 0 0 0.0068630581459339368 0.027645531214507565 -0.004347549796174785 0 -0.004347549796174785 -0.0032127331682799132 0 0 0 0.0061081995115569165 0.030174450813144162 -0.0010699649081409857 0 -0.0010699649081409857 -0.003272415322655018 0 0 0 0.006725508872622279 0.033357320307261795 -0.0069659740942057506 0 -0.0069659740942057506 -0.0049296376080225079 0 0 0 0.0071069206748098357 0.026988310364812244 -0.0072330811753214541 0 -0.0072330811753214541 -0.0062025980290398575 0 0 0 0.0051964280839431332 0.033446077535097402 -0.010635941831820338 0 -0.010635941831820338 -0.00014393465359724411 0 0 0 0.0083255357203750602 0.027185055100328353 -0.01116609436148594 0 -0.01116609436148594 0.00068117960769107505 0 0 0 0.0069665586770048214 0.032473638141615434 -0.0064712205668283895 0 -0.0064712205668283895 -0.0058325794504974632 0 0 0 0.0066602646727794909 0.032572533340921118 -0.00086861611611410705 0 -0.00086861611611410705 -0.0045900523120545322 0 0 0 0.0069956202572166795 0.03676094579243494 -0.0038044284601362749 0 -0.0038044284601362749 -0.0010827775029575992 0 0 0 0.0089195420723693075 -0.05136217256182557 0.0076227635146987049 0 0.0076227635146987049 0.0018553779491032873 0 0 0 -0.012376698653180529 -0.058424548657334097 0.0089163489017481945 0 0.0089163489017481945 0.0023453758772782329 0 0 0 -0.014019793195014008 -0.040122620076527948 0.022494227270723699 0 0.022494227270723699 0.008932097769662084 0 0 0 -0.0077976305767164522 -0.083662739451982771 0.010111034144343223 0 0.010111034144343223 0.0026474210186325786 0 0 0 -0.020253829608337548 -0.091274185768524446 0.0082360013755478079 0 0.0082360013755478079 0.0057551851578639956 0 0 0 -0.021379750152665106 -0.054148539732078727 0.011288111457014416 0 0.011288111457014416 0.0018644143594952478 0 0 0 -0.0130710313431458 -0.054814445869134337 0.01215600034394726 0 0.01215600034394726 0.0040373526574563612 0 0 0 -0.012694273302919501 -0.038305369320504962 0.025457077100418612 0 0.025457077100418612 0.011994117128478088 0 0 0 -0.0065778130480067531 -0.021582556253175567 0.026590471871218546 0 0.026590471871218546 0.014348683030010523 0 0 0 -0.0018084683057912887 -0.008860219057695129 0.032377816778954155 0 0.032377816778954155 0.024034382241535424 0 0 0 0.0037935407959601153 -0.020537748213876328 0.022624960640618752 0 0.022624960640618752 0.0042596586729071184 0 0 0 -0.0040695223852422746 -0.013165045014722931 0.031741515269275267 0 0.031741515269275267 0.010563979749900421 0 0 0 -0.0006502663162056832 -0.030807074661739098 0.019082550540437782 0 0.019082550540437782 0.00095201685296175675 0 0 0 -0.0074637644521944324 -0.0073906132526294632 0.02729666758433219 0 0.02729666758433219 0.0013552466873434366 0 0 0 -0.0015088416413213679 0.035026948576052042 0.036884473630683368 0 0.036884473630683368 0.011558613679449048 0 0 0 0.011646390563875286 0.013982505846577675 0.033386812845402972 0 0.033386812845402972 0.0074973681902494871 0 0 0 0.0053699685092067351 0.047562065156031869 0.048143452922393637 0 0.048143452922393637 0.031794609356183279 0 0 0 0.019839168628053766 0.014563291032095027 0.035886754367081108 0 0.035886754367081108 0.0119503217658673 0 0 0 0.0066284031994905956 -0.018646481935029602 0.023245934255245848 0 0.023245934255245848 0.014886704617887325 0 0 0 -0.00093994432928551364 0.0062661936767178794 0.038557522582154724 0 0.038557522582154724 0.042035345731972207 0 0 0 0.012075384852172549 0.011918789761286075 0.03272463612972501 0 0.03272463612972501 0.029195622275308142 0 0 0 0.010278603009148624 0.039854240240401684 0.049248569668299352 0 0.049248569668299352 0.071930245713199614 0 0 0 0.027946121488400311 0.053633168577092771 0.051707078626622091 0 0.051707078626622091 0.11519465187831879 0 0 0 0.042206955113852862 0.078405517605275976 0.061883305862063392 0 0.061883305862063392 0.046386001100727367 0 0 0 0.031197879676500836 0.081765145094015668 0.049909066067511165 0 0.049909066067511165 0.04365630838851689 0 0 0 0.03135536337063316 0.05367564080064563 0.034675157285833202 0 0.034675157285833202 0.013574102571444868 0 0 0 0.016812435843022555 0.065158981952566239 0.035763143111617102 0 0.035763143111617102 0.016827865889853466 0 0 0 0.020496711960604971 0.078230592603544813 0.017030649959759114 0 0.017030649959759114 0.013426250020041719 0 0 0 0.022914210655896605 0.044788337881246865 0.026316694431264553 0 0.026316694431264553 0.0039209081651567779 0 0 0 0.012177311511600952 0.04156693347678253 0.02533892415468797 0 0.02533892415468797 0.0029775433412029262 0 0 0 0.01113611920449642 0.059255756104441559 0.017355941255207452 0 0.017355941255207452 0.011782227338531959 0 0 0 0.017759495860743213 0.055207514747798281 0.013865545572135596 0 0.013865545572135596 0.014065177633925785 0 0 0 0.017318173095430933 0.054183649051843363 0.010268723412543479 0 0.010268723412543479 0.018296191251260474 0 0 0 0.018119960075776098 0.046886669941491217 0.012091619673826992 0 0.012091619673826992 0.015864979190074652 0 0 0 0.015687912282891524 0.039669741459094299 0.016863069955360133 0 0.016863069955360133 0.0060649737613139854 0 0 0 0.011433678805102043 0.039400908246800759 0.020718061529794406 0 0.020718061529794406 0.0028447196212719739 0 0 0 0.010561406967018128 0.020824140631267488 0.017543995790950784 0 0.017543995790950784 0.00078398299717388764 0 0 0 0.0054020309071103473 0.021726317129816416 0.016273809284897967 0 0.016273809284897967 0.001291973964882176 0 0 0 0.0057545727736747349 0.020340001416245923 0.018767008933427587 0 0.018767008933427587 0.0017039335904533992 0 0 0 0.0055109837516749138 0.0015250188898351946 0.02249956430954525 0 0.02249956430954525 -0.0017139535183448018 0 0 0 -4.7233657127387918e-05 0.023364739727388506 0.025815880417283166 0 0.025815880417283166 0.0028918695416570994 0 0 0 0.0065641523172613736 0.029647109524644583 0.021146161708459621 0 0.021146161708459621 -0.00038697229932199706 0 0 0 0.0073150343063306533 0.0095980110700856769 0.026024379395201025 0 0.026024379395201025 -0.00098629688774964919 0 0 0 0.0021529285455840763 0.0038777700604059467 0.030847110120661991 0 0.030847110120661991 0.0038505927317881994 0 0 0 0.0019320906980484914 -0.011755527650533781 0.020469578516220943 0 0.020469578516220943 -0.0017562615038073659 0 0 0 -0.0033779472885853146 -0.016792165880259082 0.023860657844700595 0 0.023860657844700595 0.0051431863368277958 0 0 0 -0.0029122448858578086 -0.013395747904129562 0.014841916466186367 0 0.014841916466186367 0.001647027439825699 0 0 0 -0.0029371801160757993 -0.013828225394503707 0.02172886565982235 0 0.02172886565982235 -0.0016283438375261916 0 0 0 -0.0038641423080073845 0.003616421434515682 0.020040315130163411 0 0.020040315130163411 0.0003733005550898838 0 0 0 0.00099743049740119716 0.003614413584620696 0.017792942587851579 0 0.017792942587851579 -0.0039848038042923917 0 0 0 -9.2597554917833724e-05 -0.0049819031716950707 0.013400622137023532 0 0.013400622137023532 0.00032664905866532009 0 0 0 -0.0011638135282574099 -0.011408945952941729 0.013963653857885783 0 0.013963653857885783 -0.0018156985350841204 0 0 0 -0.0033061611220063236 -0.018084327529993227 0.015889360654472662 0 0.015889360654472662 0.0010865354980484909 0 0 0 -0.0042494480079863228 -0.026614310224328031 0.0053743563401569272 0 0.0053743563401569272 0.00054872209258727267 0 0 0 -0.0065163970329351617 -0.012938189376195064 0.0049536520279429563 0 0.0049536520279429563 0.0024277235831666744 0 0 0 -0.0026276164482572639 -0.022845936963262758 0.0066576243842980665 0 0.0066576243842980665 0.0027570832727799033 0 0 0 -0.0050222134226208248 -0.04295020053308668 0.0068060427896436959 0 0.0068060427896436959 0.00044890643788342288 0 0 0 -0.010625323523800911 -0.034669843012083534 0.017147408423709987 0 0.017147408423709987 -8.4867787767395342e-05 0 0 0 -0.0086886776999628434 -0.031407042639287397 0.008555922641211286 0 0.008555922641211286 0.0016507945880583907 0 0 0 -0.0074390620128073071 -0.0011182587663210453 0.0034729550851018143 0 0.0034729550851018143 0.0025825797228639646 0 0 0 0.00036608023913570209 -0.0073255894939842081 0.0026125885118519765 0 0.0026125885118519765 0.00045635459642934251 0 0 0 -0.0017173087243886886 -0.00021743483846947687 0.0056729193372546671 0 0.0056729193372546671 0.0018280684174230011 0 0 0 0.00040265839473840881 -0.01078600276525854 0.0030816699071199993 0 0.0030816699071199993 0.0016189607848766663 0 0 0 -0.0022917604950953852 -0.0089954759482284152 0.0027737134618602832 0 0.0027737134618602832 0.0015902093866400069 0 0 0 -0.001851316640397116 -0.018224957486183024 0.0040496721065797249 0 0.0040496721065797249 0.00065441835948876204 0 0 0 -0.0043926347816736211 -0.016283474497509554 0.0091323630796090738 0 0.0091323630796090738 -0.0010555874209225991 0 0 0 -0.0043347654796082047 -0.010370117895189823 0.0062636091660129567 0 0.0062636091660129567 -1.749564980180196e-05 0 0 0 -0.0025969033862478508 -0.0045617762211664914 0.011177640550635207 0 0.011177640550635207 -0.0016491858969427398 0 0 0 -0.0015527405295272523 -0.0026006843635526522 0.0083204912480270288 0 0.0083204912480270288 0.0025430515938200671 0 0 0 -1.4408192433146283e-05 0.0027428589483720067 0.011203340251058513 0 0.011203340251058513 7.4709567141173494e-05 0 0 0 0.00070439212887829505 0.0076070983275070558 0.0082117562568073676 0 0.0082117562568073676 0.0024180981120576206 0 0 0 0.0025062991098913079 0.0064838685633628046 0.0059100464255599228 0 0.0059100464255599228 0.0029088269153119128 0 0 0 0.0023481738696686794 -0.001724549504300843 0.0081068882948480692 0 0.0081068882948480692 0.00047358067281177973 0 0 0 -0.00031274220787219642 0.0051039398449827522 0.0065521515032889166 0 0.0065521515032889166 0.0026026961809147431 0 0 0 0.0019266590064743183 0.01817148568806759 0.0057905692438635636 0 0.0057905692438635636 0.006315727816433192 0 0 0 0.0061218033761251123 0.019230936467486859 0.006680403037798488 0 0.006680403037798488 0.0091645005617677633 0 0 0 0.0070988592573135723 0.028787492497475364 0.0064717418528470461 0 0.0064717418528470461 0.0098899201055058228 0 0 0 0.0096693531507452413 0.0066219706575716408 0.0093179278265796556 0 0.0093179278265796556 0.0013811596195631992 0 0 0 0.002000782569283821 0.0063935416495426445 0.013133466425699991 0 0.013133466425699991 -0.0015876581278240209 0 0 0 0.0012014708804295449 0.017821030693128792 0.0092274862030164995 0 0.0092274862030164995 0.0033139936121868718 0 0 0 0.005283756076328805 0.018634844361346881 0.011684303749863068 0 0.011684303749863068 0.0024836951540296859 0 0 0 0.0052796348788441971 0.027003077091387606 0.012411845972541413 0 0.012411845972541413 0.0046301491281934837 0 0 0 0.0079083065548952725 0.018255242821859641 0.0097127677809790425 0 0.0097127677809790425 0.0051076031257846211 0 0 0 0.0058407114869110099 0.036888670230029952 0.0069348024778694839 0 0.0069348024778694839 0.015473767228744162 0 0 0 0.013090609364693417 0.037834139226105901 0.010872431128728138 0 0.010872431128728138 0.016296777804983176 0 0 0 0.013532729257772491 0.034714715094249393 0.011839030038286458 0 0.011839030038286458 0.007125626892888981 0 0 0 0.010460085496784566 0.042500371336350762 0.0096694335332703218 0 0.0096694335332703218 0.0184564450150837 0 0 0 0.015239204087858615 0.050959298599260849 0.0049479106184024957 0 0.0049479106184024957 0.035500724989214305 0 0 0 0.021615005897118733 0.042637070764388385 0.0034303808839555305 0 0.0034303808839555305 0.025262851753564242 0 0 0 0.016974980629488101 0.04894550938903941 0.0075148530748051501 0 0.0075148530748051501 0.037547099674785755 0 0 0 0.021623152265956458 0.031290044127590809 0.0093871160996565894 0 0.0093871160996565894 0.013843995831324118 0 0 0 0.011283509989728678 0.036857532277913191 0.0063614821520654452 0 0.0063614821520654452 0.02473391020509641 0 0 0 0.015397860620752518 0.051400316566966531 -0.0013419620258362519 0 -0.0013419620258362519 0.040197894219802688 0 0 0 0.022899552696692194 0.039486590765619667 -0.0028296525329829514 0 -0.0028296525329829514 0.036408006066774412 0 0 0 0.01897364920809852 0.057328777029833633 0.0031106531607860699 0 0.0031106531607860699 0.041445236451384648 0 0 0 0.024693503370304848 0.048906831356910319 0.0010767828469573359 0 0.0010767828469573359 0.037025016718136072 0 0 0 0.021482962018761542 0.060768277155765604 -0.0058410166793325669 0 -0.0058410166793325669 0.058157832753546579 0 0 0 0.029731527477328212 0.070980871013164609 0.0037179019543764902 0 0.0037179019543764902 0.059874006621345677 0 0 0 0.032713719408627634 0.049787208106181868 -0.0066298489367373481 0 -0.0066298489367373481 0.03974413213983663 0 0 0 0.022382835061504291 0.034585958872662692 -0.0013508691668451256 0 -0.0013508691668451256 0.034334123401293937 0 0 0 0.017230020568489435 0.013939160117998339 0.0034413600252092493 0 0.0034413600252092493 0.0061328886084881518 0 0 0 0.0050180121816216783 0.016769103430809729 0.00097496215492109961 0 0.00097496215492109961 0.014622718546976721 0 0 0 0.0078479554944466123 0.027512239993271681 -0.00123406028480888 0 -0.00123406028480888 0.012557826801891991 0 0 0 0.010017516698791029 0.016344306837728695 0.0040095291324300369 0 0.0040095291324300369 0.0067158045514648101 0 0 0 0.0057650278472984873 0.032011819607520309 0.0010063198292959152 0 0.0010063198292959152 0.017762528950885148 0 0 0 0.012443587139601364 0.019209798230997444 0.002928248882732909 0 0.002928248882732909 0.014881974957322797 0 0 0 0.0085229432970800323 0.031851567616440146 0.0022027114241783274 0 0.0022027114241783274 0.015960384543053596 0 0 0 0.011952988039873436 0.0078704023118895128 0.004444570722356378 0 0.004444570722356378 0.0047033534398472909 0 0 0 0.0031434389379342287 -0.00095836800938964295 0.0032142154101231224 0 0.0032142154101231224 0.0019654921222667099 0 0 0 0.00025178102821943327 0.0055189847488728017 0.0030247507603848311 0 0.0030247507603848311 0.0027204602217247853 0 0 0 0.0020598612426496743 0.0016198540160001773 0.003929794543342302 0 0.003929794543342302 0.0029994158227757417 0 0 0 0.0011548174596940353 0.0062101997751066174 0.002936609401824386 0 0.002936609401824386 0.0050919048630642116 0 0 0 0.0028255261595427905 0.0073861941804715947 0.00052637944700939521 0 0.00052637944700939521 0.0010414220608492286 0 0 0 0.0021069040603303169 0.0040686795558673161 0.0010541298211168559 0 0.0010541298211168559 -0.00091727700154820013 0 0 0 0.00078785063857989002 0.0071177512631153128 0.0024654189706414253 0 0.0024654189706414253 0.001652619656558052 0 0 0 0.0021925927299184522 0.0034504434730655564 0.0026614780598526178 0 0.0026614780598526178 0.0019076634312504837 0 0 0 0.0013395267260791766 0.001637916180022847 0.0016838485954342453 0 0.0016838485954342453 0.00096064726423072955 0 0 0 0.00064964086106367169 0.0022657857743705323 0.0010586613717680216 0 0.0010586613717680216 0.00105968339793161 0 0 0 0.00083136729307542456 0.0016901661415602565 0.00073183858514536126 0 0.00073183858514536126 0.00088480054659623164 0 0 0 0.00064374167203928856 0.00049907318528541467 0.00091758273677444713 0 0.00091758273677444713 0.0009389134406800892 0 0 0 0.00035949665649148699 0.0015277734561227607 0.0015473922475688351 0 0.0015473922475688351 0.0021019976409579755 0 0 0 0.00090744277427012854 -0.0018012628329016067 0.0019154809362715852 0 0.0019154809362715852 0.0024382440153711826 0 0 0 0.00015924529561739398 -0.00019164012030448152 0.001611294566813859 0 0.001611294566813859 0.0015281566051882356 0 0 0 0.00033412912122077199 -0.0058568469629562969 0.0018138906650404518 0 0.0018138906650404518 0.0010941025344433086 0 0 0 -0.001190686107128025 0.025165048977153437 0.0097117894112653813 0 0.0097117894112653813 0.0055782309987776335 0 0 0 0.0076858199939828231 0.03596304818924867 0.010103572204212277 0 0.010103572204212277 0.02243493814060793 0 0 0 0.014599496582464178 0.035476026219930831 0.012344620120748273 0 0.012344620120748273 0.018874454178656519 0 0 0 0.013587620099646855 0.031107191609671125 0.013372785382663996 0 0.013372785382663996 0.014672364690275663 0 0 0 0.011444889074986697 0.02361804372790435 0.010663024536140597 0 0.010663024536140597 0.0039643515025818352 0 0 0 0.0068955988076215263 0.018030863459909341 0.0078924225283238947 0 0.0078924225283238947 -0.00038692542987184275 0 0 0 0.004410984507509319 0.019363735508232505 0.0051331744985965155 0 0.0051331744985965155 0.00020444905095295951 0 0 0 0.0048920461397963799 0.02403666903465123 0.0068088160424664701 0 0.0068088160424664701 0.0019729773342590518 0 0 0 0.0065024115922275791 0.020392717977863406 0.0048545292151214448 0 0.0048545292151214448 -0.002205249184825453 0 0 0 0.0045468671982595021 0.022211443218318496 0.0019585968937811116 0 0.0019585968937811116 -0.0028168842536860222 0 0 0 0.0048486397411580638 0.029454628055455512 0.005819707032313437 0 0.005819707032313437 0.0028966009788516933 0 0 0 0.0080878072585767735 0.027677319592370547 0.0087756733887036087 0 0.0087756733887036087 0.0020812023776641819 0 0 0 0.0074396304925086476 0.024368370287895055 0.0087083576966356935 0 0.0087083576966356935 0.0046503385255651786 0 0 0 0.0072546772033650481 0.031853874492209111 0.0097214898797662007 0 0.0097214898797662007 0.014563340594857421 0 0 0 0.011604303771766633 0.032185064449637507 0.010149805207134766 0 0.010149805207134766 0.013398873179174375 0 0 0 0.011395984407202991 0.037858345996628906 0.0077357124059523052 0 0.0077357124059523052 0.03004410797034951 0 0 0 0.016975613491744632 0.043725148282928103 0.0049025958819772508 0 0.0049025958819772508 0.055713743902022883 0 0 0 0.024859723046237722 0.053068569990225245 0.0050987863917385245 0 0.0050987863917385245 0.06533330429071571 0 0 0 0.029600468570235239 0.042726918162773991 0.011211114779930753 0 0.011211114779930753 0.036482513768172409 0 0 0 0.019802357982736579 0.058985609480403878 0.009278928712355361 0 0.009278928712355361 0.044982461013084341 0 0 0 0.025992017623371999 0.06718583743476203 0.0029837908631970282 0 0.0029837908631970282 0.06360698850790758 0 0 0 0.032698206485667125 0.04696208726201892 0.0075050701338159331 0 0.0075050701338159331 0.061120573078213669 0 0 0 0.027020665085058154 0.026078894493387197 0.0037800193088574751 0 0.0037800193088574751 0.078125514853741931 0 0 0 0.026051102336782286 0.053069191460061726 0.0053363065945610799 0 0.0053363065945610799 0.035487968387508229 0 0 0 0.022139289961892517 0.062983242095098535 0.0054486559906172793 0 0.0054486559906172793 0.065974274837050206 0 0 0 0.032239379233037435 0.061112990995245253 0.00016158847181646507 0 0.00016158847181646507 0.061946925241090689 0 0 0 0.030764979059084041 0.029462348901445529 0.003915026450555502 0 0.003915026450555502 0.088283049460253268 0 0 0 0.029436349590424699 0.061235806800931353 0.0082362540825147157 0 0.0082362540825147157 0.070709947116441074 0 0 0 0.032986438479343072 0.071325701982247414 0.0041523739995672493 0 0.0041523739995672493 0.06852866618146547 0 0 0 0.034963592040928249 0.032968308660763765 0.0039716285702652678 0 0.0039716285702652678 0.098665064246193729 0 0 0 0.03290834322673937 0.063496953937794434 0.0065444029435666184 0 0.0065444029435666184 0.061332329641359762 0 0 0 0.031207320894788407 0.042878993039120961 0.009659221064131477 0 0.009659221064131477 0.039598442209390239 0 0 0 0.020619358812127841 0.060566209176438859 0.0075967558811299851 0 0.0075967558811299851 0.072718342733319674 0 0 0 0.033321137977439644 0.044503561750006138 0.015044136482722639 0 0.015044136482722639 0.035150875043925223 0 0 0 0.01991360919848284 0.053244506419373172 0.010250848312033822 0 0.010250848312033822 0.042397114721550194 0 0 0 0.023910405285230751 0.059422475184674278 0.015458011371981453 0 0.015458011371981453 0.050905409050529316 0 0 0 0.027581971058800864 0.048455969022071319 0.0094147092272038324 0 0.0094147092272038324 0.03829802502135661 0 0 0 0.02168849851085701 0.07742720494959128 0.0099610313934352657 0 0.0099610313934352657 0.076028451832857114 0 0 0 0.03836391419561215 0.075184737890233388 0.0053124420791239371 0 0.0053124420791239371 0.083208157866709764 0 0 0 0.039598223939235733 0.068441975691100054 0.0051692510395512925 0 0.0051692510395512925 0.056106078245925423 0 0 0 0.031137013484256411 0.077560493819492704 -0.0017595287722129704 0 -0.0017595287722129704 0.08153136163314656 0 0 0 0.039772963863160093 0.036474537508307099 0.00390438016891819 0 0.00390438016891819 0.10956234113460019 0 0 0 0.036509219660726823 0.09793118186590119 0.0085829941483497596 0 0.0085829941483497596 0.087725740997194102 0 0 0 0.046414230715773858 0.088967192825676361 0.00407527015998288 0 0.00407527015998288 0.085336457972387939 0 0 0 0.043575912699516127 0.071245719024904064 -0.0029774124443801564 0 -0.0029774124443801564 0.076800087503102521 0 0 0 0.037011451632001258 0.084678795118427796 0.0066382716534589825 0 0.0066382716534589825 0.083899897762215514 0 0 0 0.042144673220160689 0.041142994325777997 0.0038823490282503502 0 0.0038823490282503502 0.12194284098073756 0 0 0 0.040771458826628894 0.10902476059490773 -0.00090385260632164233 0 -0.00090385260632164233 0.096594601347365305 0 0 0 0.051404840485568482 0.08783254021021869 -0.0060419862417193659 0 -0.0060419862417193659 0.09209323467745989 0 0 0 0.04498144372191959 0.050852413390381934 0.014780934238846577 0 0.014780934238846577 0.035993538081808829 0 0 0 0.021711487868047663 0.081897164213476314 0.011338878753547221 0 0.011338878753547221 0.089481619079843977 0 0 0 0.042844695823330142 0.10741935486101031 0.0019354311857644932 0 0.0019354311857644932 0.092504675303032302 0 0 0 0.049981007541010647 0.082006950429107273 0.010790830408402202 0 0.010790830408402202 0.082547361399594399 0 0 0 0.041138577957175404 0.06414587912500283 0.00091882894921629238 0 0.00091882894921629238 0.039862243301338141 0 0 0 0.026002030606585208 0.023383943371103375 0.0078361347509659229 0 0.0078361347509659229 0.0037479080793458297 0 0 0 0.0067829628626123045 0.042998152955733671 0.0099167265141174576 0 0.0099167265141174576 0.023766551527369839 0 0 0 0.016691176120775864 0.031801634989763822 0.0044321950951506858 0 0.0044321950951506858 -0.0097058835278680533 0 0 0 0.0055239378654739213 0.036493988639826697 0.0075033060104547356 0 0.0075033060104547356 0.02415852570106658 0 0 0 0.015163128585223312 0.029488741204891367 0.0091093347158944099 0 0.0091093347158944099 0.002220620305952492 0 0 0 0.0079273403777109785 0.025590719012583474 0.01180146299348947 0 0.01180146299348947 0.0053627804802602874 0 0 0 0.0077383748732109403 0.029267803497659062 0.010053054073690643 0 0.010053054073690643 0.014495369180335137 0 0 0 0.010940793169498473 0.038995975684014667 0.015278067593194916 0 0.015278067593194916 0.022004241317605922 0 0 0 0.015250054250405182 0.018393353814162905 0.0087859844380265423 0 0.0087859844380265423 -0.0027391293402162509 0 0 0 0.0039135561184867051 0.01890560669554605 0.0091687694449668899 0 0.0091687694449668899 0.0024324861409980685 0 0 0 0.0053345232091360443 0.018576298708101818 0.0098280705252294931 0 0.0098280705252294931 -0.0031811928154846791 0 0 0 0.0038487764731543195 0.020852415236285136 0.007879340856250916 0 0.007879340856250916 0.0042913373892456558 0 0 0 0.0062859381563826408 0.013955942929094911 0.0059142745805005614 0 0.0059142745805005614 -0.0056612959289958908 0 0 0 0.0020736617500247134 0.015978955595183558 0.0025494262542025414 0 0.0025494262542025414 -0.013237885683856032 0 0 0 0.00068526747783187458 0.015475681076298653 0.0043698943972320936 0 0.0043698943972320936 -0.029262009933590072 0 0 0 -0.0034465822143228408 0.014443086812585326 0.0018848136240514346 0 0.0018848136240514346 -0.017889360788681197 0 0 0 -0.00086156849402402313 0.014265057779037082 0.00039825247607205849 0 0.00039825247607205849 -0.037015247482685476 0 0 0 -0.0056875474259120984 0.01754197188706158 0.0048133225632892018 0 0.0048133225632892018 -0.017702056343077976 0 0 0 -4.0021114004140657e-05 0.012242719463342419 0.0015245655895310406 0 0.0015245655895310406 -0.010760286501869054 0 0 0 0.00037060824036833084 0.014437963657847781 0.0051159598134357664 0 0.0051159598134357664 -0.016458142274895088 0 0 0 -0.0005050446542618145 0.042429709319381781 -0.0077279693366219745 0 -0.0077279693366219745 -0.001370963630137001 0 0 0 0.010264686422311209 0.034546603736116434 0.0010599936616728367 0 0.0010599936616728367 -0.025131281866868534 0 0 0 0.0023538304673119746 0.021735543626173581 -0.0021591593716234828 0 -0.0021591593716234828 -0.010132275641742905 0 0 0 0.0029008169961076413 0.033629735385718174 0.00062148605972783821 0 0.00062148605972783821 0.013351330313794652 0 0 0 0.011745266424878192 0.028483340346800223 0.00056265668318547513 0 0.00056265668318547513 -0.0056421463433913299 0 0 0 0.0057102985008522511 0.02382884807440569 0.0017500381439230217 0 0.0017500381439230217 0.0017784838829051908 0 0 0 0.0064018329893276854 0.026046690998786343 0.0010314634210984858 0 0.0010314634210984858 0.011190131289165128 0 0 0 0.0093092055719878886 0.037072582087343792 -0.0033250653274661257 0 -0.0033250653274661257 0.011474706701064874 0 0 0 0.012136822197102187 0.019843319711921131 0.0047180267872227732 0 0.0047180267872227732 -0.0057876416765071936 0 0 0 0.0035139195088534358 0.018780020550329291 0.0018558700549322071 0 0.0018558700549322071 0.001065427095087057 0 0 0 0.0049613619113541008 0.013150669095074757 0.00485687285142751 0 0.00485687285142751 -0.0026124265670518509 0 0 0 0.0026345606320057335 0.019055858676288048 0.0055297624509038079 0 0.0055297624509038079 -0.00056136227421255125 0 0 0 0.00462362410051885 0.01847561044135021 0.0046658563365908901 0 0.0046658563365908901 -0.00074593980904757995 0 0 0 0.0044324176580756713 0.020625204666341573 0.0031085022076088875 0 0.0031085022076088875 0.0016481071021559046 0 0 0 0.0055683279421244181 0.019325406819428154 0.002333834379734806 0 0.002333834379734806 0.0024626587850400394 0 0 0 0.0054470164011170275 0.016526184459853155 0.0042912500848686641 0 0.0042912500848686641 0.00049001834396467103 0 0 0 0.0042540507009544148 0.022578958687475295 0.00061340201147136453 0 0.00061340201147136453 0.0033653402513928454 0 0 0 0.0064860747347169762 0.019434553003533583 0.00082393655186717429 0 0.00082393655186717429 0.0033857123429416047 0 0 0 0.0057050663366188248 0.028592208125899014 -0.002497651775192733 0 -0.002497651775192733 0.010947885159550669 0 0 0 0.0098850233213624225 0.032140541416352864 -0.0013810183270645121 0 -0.0013810183270645121 0.020904460908963141 0 0 0 0.013261250581329043 0.023623623061899413 0.00060778751980747336 0 0.00060778751980747336 0.0071667636545440505 0 0 0 0.0076975966791109074 0.021532528367964848 -0.00062765528950746441 0 -0.00062765528950746441 0.0039679556684445449 0 0 0 0.0063751210091023136 0.025335515538175944 -0.0027821201894525083 0 -0.0027821201894525083 0.009308618374803429 0 0 0 0.0086610334782448381 0.02773300874820589 -0.0026742513147425644 0 -0.0026742513147425644 0.016869886694539427 0 0 0 0.011150723860686329 0.023837472009486323 -0.0035474202296427448 0 -0.0035474202296427448 0.0056454324947075515 0 0 0 0.0073707261260484956 0.020881467557359978 -0.001989001634847793 0 -0.001989001634847793 -0.0016852736458958795 0 0 0 0.0047990484778660247 0.024416300615692492 -0.00055458382520054417 0 -0.00055458382520054417 -1.4286776928794376e-05 0 0 0 0.0061005034596908975 0.019878981430292042 0.0019907718165695504 0 0.0019907718165695504 -0.0013252506405218023 0 0 0 0.0046384326974425738 0.022528964402802679 0.0033418826952678338 0 0.0033418826952678338 0.00064299321089488371 0 0 0 0.005792989403424419 0.022775516505031887 0.00028649596566085456 0 0.00028649596566085456 0.0027267333206323768 0 0 0 0.0063755624564160313 0.045353668394081226 -0.0094263211267106017 0 -0.0094263211267106017 0.042590343597797675 0 0 0 0.021986002997969545 0.016206916901261085 -0.0054057654110792174 0 -0.0054057654110792174 0.048510160087432939 0 0 0 0.016179269247173503 0.054059531640618053 -0.0080108319089109981 0 -0.0080108319089109981 0.037434997870335662 0 0 0 0.022873632377738373 0.044438866235175754 -0.0067042823704522581 0 -0.0067042823704522581 0.03695530609678907 0 0 0 0.020348543082991243 0.034795223055411939 -0.0049385863240260924 0 -0.0049385863240260924 0.034350630232459101 0 0 0 0.01728646332196776 0.028667906222586088 -0.0066486292055359664 0 -0.0066486292055359664 0.015628666548833575 0 0 0 0.011074143192854914 0.030882422661679731 -0.0053227940808854152 0 -0.0053227940808854152 0.019705089629039829 0 0 0 0.012646878072679918 0.033173214064417852 -0.0029961524469387379 0 -0.0029961524469387379 0.016962411625111584 0 0 0 0.012533906422382377 0.044908946950715484 -0.0021882146420347803 0 -0.0021882146420347803 0.041854910515276789 0 0 0 0.021690964366498075 0.039162199423160654 -0.0056422975609372178 0 -0.0056422975609372178 0.032203400181501141 0 0 0 0.017841399901165428 0.047610226569912845 -0.0021011296256439882 0 -0.0021011296256439882 0.031404949799957393 0 0 0 0.019753794092467608 0.040351485631266115 -0.006010633401561466 0 -0.006010633401561466 0.024932784694885801 0 0 0 0.016321067581538007 0.055623612632680008 -0.0049787410194167686 0 -0.0049787410194167686 0.053134545749160655 0 0 0 0.027189539595460166 0.072685057624961524 -0.006180526663950886 0 -0.006180526663950886 0.054819279358781448 0 0 0 0.031876084245935743 0.049476560370978528 -0.0063669586429820901 0 -0.0063669586429820901 0.042898974848360583 0 0 0 0.023093883804834903 0.049919069037290875 -0.013116286977182479 0 -0.013116286977182479 0.042567543067873581 0 0 0 0.023121653026291156 0.023739898913972074 -0.0054697481840172511 0 -0.0054697481840172511 0.071037943304920609 0 0 0 0.023694460554723167 0.057751673647859103 -0.0064066979447257866 0 -0.0064066979447257866 0.048042993332290007 0 0 0 0.026448666745037236 0.058130953278595632 -0.0090082185905461746 0 -0.0090082185905461746 0.045365335335048496 0 0 0 0.025874072153410976 0.019738481140698434 -0.0055065131762533914 0 -0.0055065131762533914 0.059099006880090815 0 0 0 0.019709372005197318 0.068596738040560878 -0.0042812435716329533 0 -0.0042812435716329533 0.058874715099137997 0 0 0 0.031867863284924858 0.028219733440175948 -0.0052882427917034097 0 -0.0052882427917034097 0.084579415936798241 0 0 0 0.028199787344243547 0.094053273937442422 -0.0053049172244649112 0 -0.0053049172244649112 0.066167016310522575 0 0 0 0.040055072561991228 0.080115797827984767 -0.00936667601321306 0 -0.00936667601321306 0.063008262448589397 0 0 0 0.035781015069143593 0.06554580354998818 -0.0032712220808328585 0 -0.0032712220808328585 0.054564304622254589 0 0 0 0.030027527043060664 0.044010621519123119 -1.2503153931642252e-06 0 -1.2503153931642252e-06 0.028205022831860826 0 0 0 0.018053911087745993 0.058052010889701688 -0.0070243226368587111 0 -0.0070243226368587111 0.034504820734403419 0 0 0 0.023139207906026249 0.068956316228977632 -0.0023318832306326864 0 -0.0023318832306326864 0.062619784536270817 0 0 0 0.032894025191312126 0.066434130830559462 0.0015950738381385055 0 0.0015950738381385055 0.038825736920766657 0 0 0 0.026314966937831558 0.051302196809571973 -0.0070814243000736771 0 -0.0070814243000736771 0.016143477077138035 0 0 0 0.016861418471677464 0.081231083373495966 -0.008413800580919395 0 -0.008413800580919395 0.065485972698427153 0 0 0 0.036679264017980773 0.10976822103476608 -0.00093979202515234728 0 -0.00093979202515234728 0.070383674856568462 0 0 0 0.045037973972833593 0.08353497233079539 -0.011484122790603027 0 -0.011484122790603027 0.0544563634160804 0 0 0 0.03449783393671893 0.065690107772160777 0.0036262264625031015 0 0.0036262264625031015 0.020487523239705069 0 0 0 0.021544407752966482 0.082557568320641206 -0.010612099265276509 0 -0.010612099265276509 0.062167378937036721 0 0 0 0.036181236814419426 0.033641449115614064 -0.0051890560775539772 0 -0.0051890560775539772 0.10025155353358636 0 0 0 0.033473250662300107 0.11296536255580203 -0.002137952146663858 0 -0.002137952146663858 0.076117689990286674 0 0 0 0.047270763136521898 0.090573547342936989 0.0051341813703194017 0 0.0051341813703194017 0.065868079355461795 0 0 0 0.03911040667459964 0.071070347880494225 -0.0060967977352859304 0 -0.0060967977352859304 0.037698210992398673 0 0 0 0.027192139718223166 0.051813576181751531 0.0039461683073860332 0 0.0039461683073860332 0.016707963564140726 0 0 0 0.017130384936473009 0.047733471540210015 -0.0066528849293892023 0 -0.0066528849293892023 0.022416871139612216 0 0 0 0.017537585669955558 0.061464063961923721 0.00096753867484555833 0 0.00096753867484555833 0.035751276118534125 0 0 0 0.024303835020114573 0.032373879644855719 -0.0017302995302221902 0 -0.0017302995302221902 0.014315916377086069 0 0 0 0.011672449005485475 0.014187173895975569 -0.0052270650248579242 0 -0.0052270650248579242 0.001478535514456869 0 0 0 0.0039164273526081095 0.014118642477151666 -0.0075667426711900155 0 -0.0075667426711900155 0.0012729412580951838 0 0 0 0.0038478959338117402 0.027334669715642135 -0.0027372282553532051 0 -0.0027372282553532051 -0.0018829103503468225 0 0 0 0.0063629398413238558 0.029747964002344807 -0.010127930138216223 0 -0.010127930138216223 0.0097626084988090556 0 0 0 0.0098776431252884933 0.013589136997342544 -0.011436111173591439 0 -0.011436111173591439 0.0079084008136611761 0 0 0 0.0053743844527509577 0.012175067439252674 -0.011438420341400399 0 -0.011438420341400399 0.0036263640125695495 0 0 0 0.0039503578629555003 0.022766060716099434 -0.01181550039673096 0 -0.01181550039673096 0.0099828766315265272 0 0 0 0.0081872343369064904 0.041691389016916741 -0.0084471774862174831 0 -0.0084471774862174831 0.026217114728984886 0 0 0 0.016977125936475518 0.052872384722286392 -0.012019643486154197 0 -0.012019643486154197 0.028840086626939154 0 0 0 0.020428117837306359 0.034957978551203694 -0.005195869162549327 0 -0.005195869162549327 0.019459395503590382 0 0 0 0.013604343513698602 0.0011445541899430811 -0.0023853391606240004 0 -0.0023853391606240004 0.0023497111056021147 0 0 0 0.00087356632388624345 8.6576393886650393e-05 -0.0013279799857911939 0 -0.0013279799857911939 0.00032844046080882094 0 0 0 0.0001037542136737013 0.0012753377262218698 -0.0010388117650634854 0 -0.0010388117650634854 0.00058376830928509235 0 0 0 0.00046477650887674052 0.0024133175352363256 -0.0016779902695558402 0 -0.0016779902695558402 -5.0238504301081122e-05 0 0 0 0.00059076975773386664 -0.00064740340780911065 -0.0034999329908074195 0 -0.0034999329908074195 -0.00074459502965673607 0 0 0 -0.00034799960936671148 0.0024991358004726738 -0.0051106112650867175 0 -0.0051106112650867175 -0.0015842807837214146 0 0 0 0.00022871375418764828 0.0076503848980422617 -0.0043675983497121207 0 -0.0043675983497121207 -0.00090860292949468402 0 0 0 0.0016854454921368944 0.0030004962342845554 -0.002436526623481261 0 -0.002436526623481261 -0.0038959738046941972 0 0 0 -0.00022386939260243821 0.0059405610733059104 -0.0035070629395861364 0 -0.0035070629395861364 -0.0067859209375371564 0 0 0 -0.0002113399660576728 0.0032291296501695266 -0.0083303475577019004 0 -0.0083303475577019004 -0.0017426591703540995 0 0 0 0.00037161761995374576 -0.00011977172276717019 -0.011320680051994825 0 -0.011320680051994825 0.001854244979079267 0 0 0 0.00043361831407801033 -0.0085224435803406898 -0.0079117453888694067 0 -0.0079117453888694067 -0.00023296210624385028 0 0 0 -0.0021888514216461333 0.0032830096209964799 -0.0073382599502086476 0 -0.0073382599502086476 -0.00011747627397229454 0 0 0 0.00079138333675610184 -0.00065174270237799981 -0.0078138640049828512 0 -0.0078138640049828512 0.0023500119791961538 0 0 0 0.00042456731920470503 -0.0039807361708937006 -0.0036395532883914949 0 -0.0036395532883914949 0.00033386988287265051 0 0 0 -0.00091171657200508904 -0.012172023739561869 -0.0037527284392568916 0 -0.0037527284392568916 -2.950843939464109e-05 0 0 0 -0.0030503830447391831 -0.0042908228966170858 -0.0032764671161156222 0 -0.0032764671161156222 0.0025977920168496205 0 0 0 -0.00042325771994189409 -0.021229705886433026 -0.004188838552411478 0 -0.004188838552411478 0.0024831903732001059 0 0 0 -0.0046866288783081744 -0.0061814659210701617 -0.0061713205467495147 0 -0.0061713205467495147 0.0030301031088286745 0 0 0 -0.00078784070306026077 -0.008393031818755281 -0.0089854221250212918 0 -0.0089854221250212918 0.0020270392167716089 0 0 0 -0.0015914981504959735 -0.017249471069727518 -0.0045527269856195929 0 -0.0045527269856195929 -0.00094705431148639496 0 0 0 -0.0045491313453035476 -0.0097895900351505361 -0.010564810778198375 0 -0.010564810778198375 0.0012047297952360592 0 0 0 -0.0021462150599786678 7.1921654707152172e-05 -0.011897746496922379 0 -0.011897746496922379 0.0036895650063630825 0 0 0 0.0009403716652677252 -0.0020120684337759931 -0.014045242037661193 0 -0.014045242037661193 0.0032599975798413006 0 0 0 0.00031198228651629911 -0.0012850794852218295 -0.013273053063359797 0 -0.013273053063359797 0.0045045353573116564 0 0 0 0.00080486396802259552 -0.009970338871856721 -0.010636990501431964 0 -0.010636990501431964 0.00085519739905071113 0 0 0 -0.0022787853682016967 -0.01000435572461323 -0.01239762323839122 0 -0.01239762323839122 0.0028167416122670541 0 0 0 -0.0017969035280865978 -0.0017051120973531342 -0.015440257770653554 0 -0.015440257770653554 0.0060279429993193023 0 0 0 0.0010807077254915143 -0.014281568260338162 -0.012557618102438328 0 -0.012557618102438328 0.0018567782262934873 0 0 0 -0.0031061975085110993 -0.019569450119722054 -0.0078546329279866045 0 -0.0078546329279866045 0.0017031493152372956 0 0 0 -0.0044665752011211479 -0.022506397740208461 -0.006267358164759318 0 -0.006267358164759318 -0.00068013835991309612 0 0 0 -0.0057966340250303894 -0.023748422992684648 -0.0066073872552930291 0 -0.0066073872552930291 0.002942384771230655 0 0 0 -0.005201509555363526 -0.032921067188500575 -0.0034465849635401113 0 -0.0034465849635401113 0.00023688017284839713 0 0 0 -0.0081710467539130582 -0.021004080807040637 -0.0034248069132965103 0 -0.0034248069132965103 0.0013354883965592812 0 0 0 -0.00491714810262045 0.030392163485093271 -0.014516668428921298 0 -0.014516668428921298 0.016650763975028626 0 0 0 0.011760731865030405 0.021916484034271266 -0.013016363706056966 0 -0.013016363706056966 0.016087670078340111 0 0 0 0.009501038528152761 0.034079698309094408 -0.014224028361218499 0 -0.014224028361218499 0.029027112151752021 0 0 0 0.01577670261521158 0.028630090305507339 -0.015763953427897548 0 -0.015763953427897548 0.017662080620710174 0 0 0 0.01157304273155435 0.0093292579469905212 -0.013719155780752113 0 -0.013719155780752113 0.0075792936842022929 0 0 0 0.0042271379077982174 0.0083947538861651183 -0.013803825697864536 0 -0.013803825697864536 0.0047911425238171823 0 0 0 0.0032964741024957278 0.019112052173483218 -0.015814810539753144 0 -0.015814810539753144 0.009267014930307127 0 0 0 0.0070947667759476696 0.015072808037488172 -0.016611018667641253 0 -0.016611018667641253 0.008318711095443021 0 0 0 0.0058478797832328677 0.0068460803355669675 -0.014745887261335744 0 -0.014745887261335744 0.0078263381012694255 0 0 0 0.0036681046092089387 0.0053524226023768939 -0.013924820394039528 0 -0.013924820394039528 0.0039556433595311358 0 0 0 0.0023270164904770629 0.0056791812356421015 -0.012795658306326896 0 -0.012795658306326896 0.0065575362397297388 0 0 0 0.0030591793688428751 0.026504580216805351 -0.014966969730586643 0 -0.014966969730586643 0.013752017875871214 0 0 0 0.010064149523169252 0.017413585190139802 -0.01401869238917457 0 -0.01401869238917457 0.015035972441929335 0 0 0 0.0081123894080171732 0.040034773776673971 -0.011040400700053826 0 -0.011040400700053826 0.025063988724133068 0 0 0 0.016274690625201815 0.029154335700702527 -0.013597933720294608 0 -0.013597933720294608 0.022351277143409121 0 0 0 0.012876403211027954 0.036716430658361998 -0.01067871926377828 0 -0.01067871926377828 0.020374643928328773 0 0 0 0.014272768646672707 0.026262561541622154 -0.015346951578410151 0 -0.015346951578410151 0.014682426641210666 0 0 0 0.010236247045708191 0.028325388641601834 -0.011528009272490314 0 -0.011528009272490314 0.015370035674539206 0 0 0 0.010923856079035288 0.034090270943327117 -0.01355685918251992 0 -0.01355685918251992 0.015148288030212953 0 0 0 0.012309639743385004 0.016782568449136614 -0.01633267298162866 0 -0.01633267298162866 0.0096018117789578028 0 0 0 0.0065960950570236321 0.019035336071714121 -0.012661468453632363 0 -0.012661468453632363 0.013335063378971335 0 0 0 0.0080925998626713846 0.014860403714212711 -0.017006896180322889 0 -0.017006896180322889 0.0078396821730735144 0 0 0 0.0056750214718215286 0.0012778720767861462 -0.016460412778516925 0 -0.016460412778516925 0.0049646604581525811 0 0 0 0.0015606331337346679 -0.0013184705759836657 -0.012243885490526907 0 -0.012243885490526907 0.0038882124289922881 0 0 0 0.00064243546325215561 0.014353356418677535 -0.013082436273638698 0 -0.013082436273638698 0.0080559568806325837 0 0 0 0.0056023283248275574 0.0047733576707800207 -0.017621339091648591 0 -0.017621339091648591 0.0047101787903354175 0 0 0 0.0023708841152789706 0.012177659190062751 -0.012688364468948166 0 -0.012688364468948166 0.0063637379631409363 0 0 0 0.0046353492883009495 -0.0015427872110794771 -0.013576094332146488 0 -0.013576094332146488 0.0030952802729266038 0 0 0 0.00038812326546183717 -0.00054208662055452161 -0.015672990967849271 0 -0.015672990967849271 0.0073363603170331082 0 0 0 0.001698568424119612 0.029660180477252995 -0.014007116429149313 0 -0.014007116429149313 0.010028000363845546 0 0 0 0.009922045210274677 0.032059721788589013 -0.011450654731214795 0 -0.011450654731214795 0.014747257330221863 0 0 0 0.011701744779702705 0.02883580039474265 -0.011608556604600469 0 -0.011608556604600469 0.016612419553659663 0 0 0 0.011362054987100634 0.01317224468019032 -0.016163187419942326 0 -0.016163187419942326 0.0086215624812115976 0 0 0 0.0054484517903505003 0.026658220181882575 -0.013049015936251782 0 -0.013049015936251782 0.010654663905426576 0 0 0 0.0093282210218272876 -0.03367987379786358 -0.0064179412831619764 0 -0.0064179412831619764 0.001879904998556059 0 0 0 -0.0079499921998268941 -0.039163503743019856 -0.0031443533533914714 0 -0.0031443533533914714 -0.00010465531545068504 0 0 0 -0.0098170397646176223 -0.032859575434386341 -0.0034343927318136735 0 -0.0034343927318136735 -0.00051859881798613228 0 0 0 -0.0083445435630931167 -0.043031427959134394 -0.0042494448190490775 0 -0.0042494448190490775 0.0019036555425340218 0 0 0 -0.010281943104150093 -0.024334446694701029 -0.0055404741075467667 0 -0.0055404741075467667 -0.0011257855799147176 0 0 0 -0.0063650580686538949 -0.013819336132925297 -0.01026675110348213 0 -0.01026675110348213 0.0022432748307066319 0 0 0 -0.0028940153255546663 -0.024212665573238368 -0.010758353438441944 0 -0.010758353438441944 0.0022978067073544661 0 0 0 -0.0054787147164709338 -0.010023987164336695 -0.011465076017947717 0 -0.011465076017947717 0.0016510539787711331 0 0 0 -0.0020932332963913003 -0.012415862061208593 -0.015035110539628638 0 -0.015035110539628638 0.0039018436559163927 0 0 0 -0.0021285046013230224 -0.015165512620544552 -0.012972491174722878 0 -0.012972491174722878 0.0031382463369480362 0 0 0 -0.003006816570899129 -0.012318505806127592 -0.010874653868827133 0 -0.010874653868827133 0.0037800220069545351 0 0 0 -0.0021346209497932781 -0.013212288723824628 -0.014636715184510513 0 -0.014636715184510513 0.0059644725746311744 0 0 0 -0.0018119540372982801 -0.019384044178361863 -0.008334482934951315 0 -0.008334482934951315 0.0020949951911078055 0 0 0 -0.0043222622468135283 -0.027737084574886717 -0.010846611968078401 0 -0.010846611968078401 0.0027699067588567994 0 0 0 -0.006241794454007521 -0.027467730112548328 -0.0089108559982922775 0 -0.0089108559982922775 0.0013709050254742672 0 0 0 -0.006524206271768529 -0.028258999421492459 -0.0098141121184046887 0 -0.0098141121184046887 0.0019944105513645116 0 0 0 -0.0065661472175319036 -0.04110483165352681 -0.0054602184798294706 0 -0.0054602184798294706 0.0015100493203141496 0 0 0 -0.0098986955833030993 -0.039848509549659863 -0.0033309105522774107 0 -0.0033309105522774107 0.00088794459374741397 0 0 0 -0.0097401412389780534 -0.050584466990923838 -0.0056686526234583923 0 -0.0056686526234583923 0.0012012522291877659 0 0 0 -0.012345803690433976 -0.067932776436692238 -0.0032070043099311496 0 -0.0032070043099311496 0.0013443449024835297 0 0 0 -0.01664710788355217 -0.057325853290955353 -0.0040020986445955531 0 -0.0040020986445955531 0.0012875325608464605 0 0 0 -0.014009580182527237 -0.046584753125741563 -0.0017329761466171878 0 -0.0017329761466171878 0.0005297328750539787 0 0 0 -0.011513755062671882 -0.041079993217996491 -0.0093092358165053971 0 -0.0093092358165053971 0.0035659806170051933 0 0 0 -0.0093785031502478244 -0.032283408847075951 -0.0058432386395539104 0 -0.0058432386395539104 0.001217608545797666 0 0 0 -0.007766450075319592 -0.016075068247829505 -0.0089571025091855772 0 -0.0089571025091855772 0.0036223083292113989 0 0 0 -0.0031131899796544293 -0.019428272920046952 -0.012970428152500435 0 -0.012970428152500435 0.0064467667857549538 0 0 0 -0.0032453765335730966 -0.017268784202390697 -0.011230143180605889 0 -0.011230143180605889 0.011194465030961998 0 0 0 -0.0015185797928571887 -0.023971519016878183 -0.0061585323359078514 0 -0.0061585323359078514 0.0010172503247139197 0 0 0 -0.005738567173041019 -0.024353171884427038 -0.0077618355124028302 0 -0.0077618355124028302 0.0048057646207777527 0 0 0 -0.0048868518159123076 -0.034793835067407852 -0.00042820312151312101 0 -0.00042820312151312101 0.0059846823395720561 0 0 0 -0.007202288181958949 -0.03594333529764239 -0.0079862667814646487 0 -0.0079862667814646487 0.0048804830640913344 0 0 0 -0.0077657130583877881 -0.047414328756422097 -0.0042252690243790303 0 -0.0042252690243790303 0.0013364575573457937 0 0 0 -0.011519467799769117 -0.043561538640697797 -0.0011866476701627715 0 -0.0011866476701627715 0.0013305793489203389 0 0 0 -0.010557739822944378 -0.065965120935162894 -0.0017426544276487321 0 -0.0017426544276487321 0.001738001841947806 0 0 0 -0.016056779773303789 0.015552020761612781 -0.012408723723730919 0 -0.012408723723730919 0.010824644462077482 0 0 0 0.0065941663059225584 0.035801729985633607 -0.022165998877861304 0 -0.022165998877861304 0.020338055361400542 0 0 0 0.014034946336758558 0.01444039178105444 -0.016730041847263233 0 -0.016730041847263233 0.011325583863945887 0 0 0 0.0064414939112500957 0.011808187956624971 -0.012605361742103787 0 -0.012605361742103787 0.0057657647192614903 0 0 0 0.0043934881689715599 -0.0048224321634629808 -0.013110459412154052 0 -0.013110459412154052 0.0052511776021054724 0 0 0 0.0001071863596605882 -0.0034177159842297689 -0.01354687412004002 0 -0.01354687412004002 0.0095836178590401055 0 0 0 0.0015414754687025634 0.0099378837842343526 -0.017322319322374102 0 -0.017322319322374102 0.01233910574800956 0 0 0 0.0055692473830609712 -0.0030310244113563589 -0.0083822665780319133 0 -0.0083822665780319133 0.012568462449324636 0 0 0 0.0023843595094921177 -0.021043411205216828 -0.0045894850620932792 0 -0.0045894850620932792 0.0052014143031235971 0 0 0 -0.0039604992255233007 -0.014169132677062532 -0.0023940861044413619 0 -0.0023940861044413619 0.0085812601149519163 0 0 0 -0.0013969681405276574 -0.0072232483031291483 -0.012438359897525814 0 -0.012438359897525814 0.014443918326277505 0 0 0 0.0018051675057871031 0.013365724380165894 -0.014174286534639452 0 -0.014174286534639452 0.017963007151538229 0 0 0 0.0078321828829260309 0.014273365067293209 -0.012710578726692165 0 -0.012710578726692165 0.019434812320112849 0 0 0 0.0084270443468515144 0.031665909352391983 -0.018272173356895044 0 -0.018272173356895044 0.027996305250141573 0 0 0 0.014915553650633406 0.042491853301036261 -0.030308972121188715 0 -0.030308972121188715 0.05661942198393758 0 0 0 0.024777818821243469 -0.01922393542984327 0.0052863143818042413 0 0.0052863143818042413 0.030541293331377894 0 0 0 0.002829339475383677 0.096254647322492004 -0.029380461993146742 0 -0.029380461993146742 0.026736689929009405 0 0 0 0.030747834312875352 0.0022327465175582392 -0.0011309360154957938 0 -0.0011309360154957938 0.0065589990022716822 0 0 0 0.002197936379957481 0.049799863878190617 -0.015527549578953193 0 -0.015527549578953193 0.0064401499352797209 0 0 0 0.014060003453367595 0.04394717672818238 -0.011354927132320489 0 -0.011354927132320489 0.013812548074331965 0 0 0 0.014439931200628586 0.0055609028444639479 -0.002887391819099422 0 -0.002887391819099422 0.016618869047781086 0 0 0 0.0055449429730612589 0.067725609366701384 -0.008694883955503635 0 -0.008694883955503635 0.015420134678785891 0 0 0 0.020786436011371784 0.007920240360732151 -0.0039918183221376267 0 -0.0039918183221376267 0.023680744764016215 0 0 0 0.0079002462811870906 0.048156727383206199 -0.0078107552190969376 0 -0.0078107552190969376 0.017596994121324983 0 0 0 0.01643843037613274 0.044431969667530713 -0.012990905773985151 0 -0.012990905773985151 0.011464022803297724 0 0 0 0.013973998117707109 0.012711508890606918 -0.0090805277683010492 0 -0.0090805277683010492 0.0096035718736462439 0 0 0 0.0055787701910632731 0.0078437014442425679 -0.010259261162181219 0 -0.010259261162181219 0.016847668128496945 0 0 0 0.0061728423931848714 0.014617825199391019 -0.0081976462536793374 0 -0.0081976462536793374 0.014302956400711192 0 0 0 0.007230195400025563 -0.004166097388459411 -0.010602651163510814 0 -0.010602651163510814 0.010578922281557934 0 0 0 0.0016032062232746169 0.013101433991666946 -0.0047473672177518328 0 -0.0047473672177518328 0.02126754743412565 0 0 0 0.0085922453564481541 0.0091613417327491703 -0.002960780628601889 0 -0.002960780628601889 0.0060352231170187065 0 0 0 0.0037991412124419727 0.00032134253210590324 -0.0066136649293713767 0 -0.0066136649293713767 0.05635829735208147 0 0 0 0.014169909971046835 0.0094626775772835223 -0.00068290801434925733 0 -0.00068290801434925733 0.020889429436622975 0 0 0 0.007588026753476626 0.015003027865024429 -0.0068183623092744547 0 -0.0068183623092744547 0.0079244091178311826 0 0 0 0.0057318592457139064 0.01884998221427156 -0.0081819041550988403 0 -0.0081819041550988403 0.020725395479707816 0 0 0 0.0098938444234948422 0.01320068603340508 -0.0094071768981625406 0 -0.0094071768981625406 0.019902496907415426 0 0 0 0.0082757957352051215 0.016409307488314734 -0.012541644991553014 0 -0.012541644991553014 0.021169766577912169 0 0 0 0.0093947685165567257 0.017485265374723145 -0.011239625710593622 0 -0.011239625710593622 0.031735271342257593 0 0 0 0.012305134179245182 0.024240946550669239 -0.016552003281722377 0 -0.016552003281722377 0.022642175422479899 0 0 0 0.011720780493287279 0.026665262565455025 -0.015624715256349217 0 -0.015624715256349217 0.011222968433649005 0 0 0 0.0094720577497759972 0.021336887920683209 -0.012131030858311437 0 -0.012131030858311437 0.010338197278196848 0 0 0 0.0079187712997200038 0.022930980343111425 -0.012423515781573483 0 -0.012423515781573483 0.009532871820690958 0 0 0 0.0081159630409506217 0.020655225283114712 -0.011467328134469126 0 -0.011467328134469126 0.0086519226358668655 0 0 0 0.0073267869797453977 0.021688364323167855 -0.012715699723000823 0 -0.012715699723000823 0.0027914547904432929 0 0 0 0.0061199547784027974 0.016543747401256734 -0.010867147289687393 0 -0.010867147289687393 0.0099740154890212082 0 0 0 0.0066294407225694768 0.021149523077681025 -0.010946601824812482 0 -0.010946601824812482 0.0048559175371068186 0 0 0 0.0065013601536969556 0.021340997618833762 -0.011347417507429819 0 -0.011347417507429819 0.0056891066085845432 0 0 0 0.0067575260568545903 0.018652145934808059 -0.010977218887435664 0 -0.010977218887435664 0.0068802425164481984 0 0 0 0.0063830971128140679 0.022043760950179986 -0.010069480353521176 0 -0.010069480353521176 0.0017248260081945965 0 0 0 0.0059421467395936595 0.022318556051382221 -0.0097676624904272646 0 -0.0097676624904272646 0.005166852147667933 0 0 0 0.0068713520497625524 0.02217756057254873 -0.0098488731124287965 0 -0.0098488731124287965 0.0086819208735852138 0 0 0 0.0077148703615334685 0.026774556257711565 -0.010927770633982287 0 -0.010927770633982287 -0.0001102911185298372 0 0 0 0.0066660662847954355 0.024314060436523913 -0.01165406444800679 0 -0.01165406444800679 0.0034009102542845657 0 0 0 0.0069287426727021179 0.023961366957959626 -0.011324017484901763 0 -0.011324017484901763 0.0031367122630059086 0 0 0 0.0067745198052413802 0.025529995527396585 -0.0089748495912059245 0 -0.0089748495912059245 0.00035811892647164001 0 0 0 0.0064720286134670457 0.025784580404705035 -0.0091166686450983581 0 -0.0091166686450983581 -0.00071491517396738563 0 0 0 0.0062674163076844192 0.022892772983098816 -0.0022910672626614281 0 -0.0022910672626614281 -0.006702920694108383 0 0 0 0.0040474630722476118 0.022289477248434289 -0.0059306388393846193 0 -0.0059306388393846193 -0.0015820660635084138 0 0 0 0.0051768527962314653 0.026017466290353009 -0.0043273524777556194 0 -0.0043273524777556194 0.00065213485541393279 0 0 0 0.0066674002864417492 0.023274460957347809 -0.0079436479905591328 0 -0.0079436479905591328 0.010987320889838448 0 0 0 0.0085654454617965781 0.024487187195132626 -0.0067157212301538691 0 -0.0067157212301538691 0.0051994221234235583 0 0 0 0.0074216523296390668 0.021851963531071657 -0.0079319366006664893 0 -0.0079319366006664893 0.0042696743011353538 0 0 0 0.006530409458051719 0.022699129032318272 -0.0044432143745137542 0 -0.0044432143745137542 0.0034940676900501733 0 0 0 0.0065482991805921043 0.024537752902268339 -0.0062984550631559888 0 -0.0062984550631559888 0.0099157479982896479 0 0 0 0.0086133752251394413 0.025719121759925273 -0.005060288679385171 0 -0.005060288679385171 0.012449918586472042 0 0 0 0.0095422600865993079 0.027893422077352376 -0.0063614077088020721 0 -0.0063614077088020721 0.020803834440972557 0 0 0 0.012174314129581254 0.025176636122415663 -0.0083171766835235805 0 -0.0083171766835235805 0.017554934008530532 0 0 0 0.010682892532736576 0.024451036937906012 -0.0072443103560276556 0 -0.0072443103560276556 0.014607798446326481 0 0 0 0.0097647088460581233 0.028870481784230795 -0.0055097884559950462 0 -0.0055097884559950462 0.02900358390382618 0 0 0 0.014468516422014216 0.050535641322727726 -0.0074581447320760663 0 -0.0074581447320760663 0.029700520031505806 0 0 0 0.020059040338558404 0.013098455509014301 -0.0051590188915302173 0 -0.0051590188915302173 0.039200363459907711 0 0 0 0.013074704742230504 0.034263013877423656 -0.0070972861395604547 0 -0.0070972861395604547 0.031050339959076301 0 0 0 0.016328338459124972 0.040211374856004733 -0.010316757413497676 0 -0.010316757413497676 0.032881996621381582 0 0 0 0.018273342869346509 0.040205284294309945 -0.0087683095366992148 0 -0.0087683095366992148 0.02684397967085439 0 0 0 0.016762315991291105 0.051914875376428221 -0.0062007752599744226 0 -0.0062007752599744226 0.024036127213430236 0 0 0 0.018987750647464635 0.021968602125567817 -0.0082818739629832716 0 -0.0082818739629832716 0.02495931489025327 0 0 0 0.011731979253955312 0.010368906955530173 -0.004716854910814563 0 -0.004716854910814563 0.031022768210169707 0 0 0 0.010347918791424972 0.04329912551518228 -0.0075761295649619878 0 -0.0075761295649619878 0.02276215909182433 0 0 0 0.016515321151751694 0.03894510850320515 -0.011580459148549521 0 -0.011580459148549521 0.013042895378846175 0 0 0 0.012997000970512762 0.055245655672491178 -0.0064834465745467473 0 -0.0064834465745467473 0.018746180364405785 0 0 0 0.018497959009224296 0.016228232374681906 -0.0088742071200725303 0 -0.0088742071200725303 0.017412797304026006 0 0 0 0.0084102574196769642 0.018886113079091792 -0.010993393068355478 0 -0.010993393068355478 0.0098582989572049001 0 0 0 0.0071861030090741781 0.018910504894884387 -0.010152118408720351 0 -0.010152118408720351 0.011688668247073944 0 0 0 0.0076497932854895818 0.023465906099778847 -0.0075188469483528919 0 -0.0075188469483528919 0.019470175462661443 0 0 0 0.010734020390610069 
</DataArray>
<DataArray type="Float64" Name="von_mises_stress" format="ascii">
0.020146292591447984 0.015888004529935558 0.023956561868395895 0.019426940360864411 0.016270113704072057 0.016276503293756264 0.021122666523114623 0.021131701836456091 0.021313274395252942 0.019004679446917389 0.024685973347033735 0.020308460372801932 0.028752256065966802 0.023895279662062483 0.031975954791991272 0.026808866224478946 0.026352346694136622 0.026088988253973329 0.014028531657485532 0.01755853802971399 0.014082445328699898 0.018744456608860094 0.017329313575715419 0.016571714699260574 0.014592482032906057 0.019850131668409907 0.018094795408267049 0.016821724069049651 0.013549363497323148 0.014773114354267579 0.016353879309970332 0.012051415665923599 0.014613644259080006 0.011146089266713309 0.016447953557986641 0.020735297305222253 0.018809210359930426 0.014572313395096723 0.019424248720203322 0.022197222968730435 0.016875301182770894 0.018256799565995331 0.015242986969521866 0.011741954625201579 0.017458699986336399 0.012584982272344667 0.011213876320088585 0.013566445056671825 0.031466872512653329 0.027973546367558503 0.03858095867857083 0.028302062236274163 0.023669862998973897 0.024216310408124619 0.025498933831105429 0.026932980883944791 0.021041364401545651 0.028798359147642588 0.022771411392381351 0.027572542119074443 0.035625256176107387 0.03381081004055695 0.032890081715560043 0.043670252780318171 0.046436901153392753 0.035367119842586732 0.039857188667515843 0.054515117350348564 0.043148261174240504 0.040158518959223712 0.045009076024356533 0.059785831024434598 0.027078561425203665 0.025813289542661509 0.031981338825500687 0.032823882305645154 0.025777291088151775 0.038986568951038546 0.030367787983432211 0.030203033320038632 0.024074909896830903 0.018865433631908478 0.017322840391613376 0.016825935220089065 0.015032021609277363 0.023899475237062599 0.0098538241937990607 0.014262118978401137 0.011298214455003419 0.0056298739313052643 0.012244675070435007 0.011703776120138083 0.0075416267552383693 0.0063191693701041387 0.01936556900171504 0.019996765376833446 0.011586925182732593 0.012947307279691608 0.01973258623310227 0.023924761187284718 0.020404431103801583 0.019507332728536986 0.010206964383811006 0.015227705250334674 0.0064991674053797854 0.010183457931536556 0.0083169400812291242 0.017632552694005373 0.019814284260546485 0.017214279815894983 0.02075361001953643 0.024758778970738232 0.010471469537307756 0.018538175526518416 0.021333716682330466 0.027045594907074463 0.032651646545903454 0.035606173308528249 0.044088894455780014 0.045943856749432785 0.06538366887370356 0.048320981905327132 0.047047584229994104 0.048164566814919409 0.042386853523095284 0.063965006812407202 0.048048623130553601 0.035253794355583873 0.029041991261096411 0.035564373615991338 0.020431763838016263 0.017397631093978565 0.016002611283206531 0.018018922360825113 0.01821915235085601 0.021199170087124658 0.025518938196721873 0.023477154519807537 0.023591512734057615 0.021372939959667984 0.022023627489242057 0.02400995923937926 0.024030227868486232 0.026028735835032825 0.027106533672743644 0.056392394058320104 0.037396421870336094 0.035578539465410793 0.027707145063265597 0.025972932354816534 0.022159517215781997 0.036167891097698204 0.021548875576256104 0.012298952957223963 0.020721239926657004 0.0089135555672822022 0.013768087245807321 0.025409370282110991 0.021624566754158869 0.02014097826550974 0.012209050854412406 0.01543631342067907 0.01124111436280823 0.0078508247944892098 0.0089482314779550515 0.0071083118338000741 0.010416190852218263 0.0073849429538991457 0.0086730760212371319 0.0079347233364691731 0.010475442001849914 0.0085618258157856113 0.012153305590242759 0.0089386367998774002 0.0090554071895249614 0.0093335260201540208 0.0087695461339079052 0.0082758723282319764 0.012521652424940754 0.012640319932479396 0.012848621897671889 0.0088559186829511669 0.0083957673592340871 0.0078297322038928929 0.01038400165395637 0.0092291053115755219 0.010488901429231107 0.014157481068192129 0.011932531238327623 0.01846217853999256 0.011594514043169676 0.014943333726563842 0.0095548450335376685 0.012501340517259955 0.012303857699410319 0.013888383369502459 0.013928478377184075 0.018926979526941626 0.020350197164096587 0.019276157813257238 0.017080362746843439 0.016966358670868271 0.011984898134768577 0.015336422497477279 0.01709022688453601 0.016060106177927837 0.018785355260349787 0.019796973736069218 0.016570565958351408 0.022007249249494824 0.021325270197495864 0.023602484878547794 0.021957203587773873 0.020473415706059761 0.010883759096153654 0.012119654721526384 0.011986122046902171 0.013815595770571993 0.011700672334538942 0.01302269135402517 0.012238650769679804 0.014163659828033673 0.015863546191842777 0.01387121995467233 0.017776931313587149 0.014412643294271804 0.013991579828897918 0.01197155863066182 0.014001012404545521 0.012167674303103129 0.013831437687274416 0.01528757984823889 0.013020058867915759 0.011779162015558012 0.015093445385641118 0.013174927095230627 0.015810007197444329 0.014279542670364298 0.015106297387301791 0.018152184877727892 0.014106029550522215 0.016695519887115498 0.013829865925976528 0.016863183999650991 0.013529383286397604 0.017235678489703938 0.020207481165998843 0.021842588774679709 0.019282849208253145 0.019918342425023151 0.016641861033886485 0.017994339812395555 0.014474264308201538 0.016474185179498255 0.015146933440594264 0.016866014875996857 0.018443740936161825 0.019123098987184922 0.017006888670439028 0.015271279481223483 0.01793612813241223 0.015681979863647139 0.017749440169852637 0.020349295274299094 0.021076689098709973 0.022302867379001924 0.021690945142153452 0.023697682209916471 0.023580701713883129 0.024853274480799693 0.023888481538608803 0.022599780785471663 0.021028671090852134 0.015434795794690924 0.015788993825244697 0.017699413833763385 0.015660774206908361 0.019921766616591362 0.018793751108830189 0.015698630245836075 0.020078064777977078 0.021161800153529822 0.021483880132269411 0.019454935893715924 0.019444806567569469 0.018028088734757398 0.021066363665795798 0.024929102262800772 0.02342584585319615 0.025167876195208376 0.025715077667975011 0.029605355942946977 0.024998123519306876 0.023323908992239548 0.023880695897759686 0.023284830751327243 0.021363014347737037 0.0275128424480044 0.027136736177918643 0.02572207924483284 0.030634281639099113 0.027121764992797781 0.026594272880458427 0.026768572107158231 0.029666170214521743 0.031109693186685532 0.03225228348459834 0.027805518298642393 0.0281862857277396 0.02848330054934943 0.027069756879794852 0.025765669972880444 0.024969741658248008 0.023225436984040473 0.022569301011694732 0.021893548990190605 0.025324115665511186 0.025833079665092989 0.023742044066780869 0.02566572880577488 0.025179843114953963 0.025940607772662366 0.026553231470910415 0.026272733842175617 0.028242145133536154 0.045299161637276923 0.035711327727086677 0.03674044677216718 0.03580868522459757 0.031651218385732247 0.026337523008980752 0.020861351764331484 0.025757517901291785 0.028635761380153921 0.027436270558564294 0.021680356595684822 0.021688578730786584 0.02764768211783207 0.023971203131223875 0.031482693008344872 0.040158526071386279 0.026629581680576445 0.032805537910865774 0.022134867007184159 0.020820544513584179 0.025986821577367977 0.024127453869750959 0.022802181687055563 0.018194979409145471 0.021315075558763795 0.016849892460862895 0.022500359582375735 0.016809141717527183 0.016026106213288274 0.022149830809342654 0.021110086239767449 0.017251583951552008 0.023951943764986636 0.021959086679334879 0.024571885170012207 0.025226765310135936 0.020437689254549595 0.026817376550164605 0.021359585045027822 0.02419416230746041 0.028642193870559926 0.027601756404127632 0.029168150292097021 0.02613711589016866 0.0208703198899538 0.024623488722246914 0.032211652215718138 0.031915295545668722 0.03817883428951388 0.037545498921666136 0.036069720968845337 0.035446611500268968 0.040913147943952136 0.050609164298038668 0.05604491564851842 0.066995116276346522 0.048331215026278011 0.056510950940080421 0.039645047736162072 0.045326122251872866 0.03925493985405016 0.071852981908358857 0.10010912783816213 0.070244288522339007 0.063796662489790462 0.088942257178311682 0.076241587395143515 0.053256808648030764 0.060119780601759348 0.062666937618930149 0.04270847034612256 0.041285839913389438 0.030386241209192616 0.048764571556388102 0.047002861800263383 0.041148948190997681 0.026993601291764695 0.028484271907196289 0.029450936064566252 0.038663521637934441 0.031953840808892298 0.041661059298528272 0.03525015594702078 0.026530612051186439 0.030504260744401206 0.027271613043113551 0.02147154577002543 0.031285695625441923 0.029253161647325346 0.032078680569357663 0.022015438528322169 0.021278235421322615 0.034603986254488565 0.020381422266384955 0.030688442414731065 0.019048481716417362 0.023367557181565718 0.036352622761282725 0.016581957233800459 0.034468348730567977 0.040668592862813088 0.059163962162580422 0.053066380271391822 0.068500594020175692 0.043089050687287522 0.033854341183789487 0.02990304884703212 0.05802768867552998 0.038369999489152443 0.05879503741142441 0.026120765969195398 0.040269682819176381 0.044122288367201855 0.047515086330870406 0.055890641273741992 0.054753533639594003 0.048296850242839889 0.059282725502714219 0.039120884877991334 0.066045338758091474 0.063151160452908736 0.054234533253392184 0.074639966921960357 0.067280718764657507 0.10244967370934475 0.074666108516401181 0.1072844808474632 0.076694026954132272 0.065995043301998138 0.078152438901558943 0.028162447544220353 0.029664933789505347 0.031195372324164729 0.025002290679997995 0.021491461314944307 0.019390548851958671 0.013755083392713164 0.023214045012441526 0.017497925944758824 0.017324432846737996 0.019597331023735981 0.02226803820993855 0.025323387725150925 0.022082292790527633 0.027964858251540207 0.029985178812859916 0.026686446743616629 0.028743064569944746 0.030353117074288505 0.031197703093507393 0.030403931685047021 0.026603779529071718 0.032061714560094552 0.028675638771183849 0.030681635496862383 0.03402332005707745 0.033969851719050655 0.038328871184885628 0.030246143043610358 0.039752192729107849 0.040489851948903338 0.05375079079462796 0.048667556825951433 0.051644872563787358 0.039319782031262129 0.040880664016408393 0.040498617425043709 0.046329198188070027 0.077614210079295434 0.1168862757620851 0.12752189414608203 0.088313767364075771 0.04656291646168545 0.052329649469276943 0.10298612596689807 0.057830057234592294 0.061704098055695815 0.049076167461929408 0.029862008414871619 0.043740539406520736 0.026561311153892993 0.033749794233822177 0.023242814732822685 0.035819520622012713 0.01843603430150564 0.026211236027210795 0.039695359112562667 0.028787984414177185 0.026086010064513551 0.037004159707260398 0.031275987158356937 0.02936271764596542 0.041604582080436409 0.039921776257436627 0.028817521676102055 0.037381028768670825 0.036543950485181123 0.033759106584523885 0.037964838466407622 0.042443644562397388 0.046193021302872159 0.062245967700748979 0.040474468594876044 0.04753965023162976 0.052177435016900635 0.069194330403052492 0.084569172767010245 0.070962184183558555 0.17935178754528053 0.060729795523042182 0.088148038804247139 0.17281057899096242 0.12555078580814472 0.00036721639655313063 0.20261641273726511 0.086552279000681701 6.6111085290404057e-05 0.022006625148706192 0.075541822748926846 0.00010563031934622919 0.025695742970163166 0.061937139640897088 0.05289391278551181 0.021936682231415046 0.026958311425866643 0.032956761489700899 0.018594692565746484 0.017484801249716183 0.024462799268028426 0.026023363653982307 0.052574741178834657 0.042662770384588856 0.04782705437993183 9.2790318093247608e-05 0.037065276190978179 0.038260840099178635 0.035749981123001415 0.032759259288615138 0.030670351515373527 0.00010335129994928776 0.030619520766536047 0.018197707256298983 0.024389220655962839 0.022428499969686905 0.020953907636434232 0.022790425397954867 0.026195369683012636 0.025364445286698373 0.026710868618541692 0.031730716491874034 0.030605778221629864 0.027333149725433346 0.026103426357692236 0.028428648042109744 0.029794069628690086 0.035993069701354165 0.031783369152825383 0.035424582003297213 0.030812651488729279 0.035644269413831829 0.032969615010881803 0.03459898557977284 0.04951346283731483 0.056610919709901682 0.058168271689631963 0.079397729807314549 0.087872709013336256 0.053909224727499323 0.056587103213861102 0.062329645440657472 0.055612234336829401 0.063015086335429973 0.044871049526884844 0.058696628380691319 0.043641939754807908 0.047905827790514159 0.068044865018004025 0.058347383279183242 0.086795324105188323 0.062551049969399794 0.049652389910600878 0.074601854812143376 0.059516567572202653 0.093962243186732491 0.11244845561397089 0.1150255424132018 0.097699109594626299 0.071385275958201669 0.077518030172099822 0.067415816225855796 0.058979676514167925 0.056276568446955041 0.053938740566555114 0.046327077490338937 0.040132346246626656 0.037503218043422992 0.042787599897548399 0.049005343921851546 0.035408519333058282 0.033775693910975853 0.036707629763292129 0.039071237759663653 0.048547100336003166 0.045514006032871965 0.046048460899884631 0.053463689891454572 0.036652564090176067 0.045577888348261208 0.028968746913502597 0.03928091440976858 0.034838569630868059 0.031513268170786306 0.023690082903891636 0.025785739965500064 0.032420898296102792 0.026124457735829477 0.016050041565273006 0.025491773161060386 0.040797990388707815 0.04306604637730644 0.033084233888210766 0.0068257175412673081 0.0082972884619848114 0.0099923089364394209 0.012212885610140006 0.010514294218594147 0.018325334842212267 0.021045350237750469 0.014311704897319812 0.019585513390953577 0.015084278110697546 0.019554537387895705 0.015125298348093374 0.010949226405001837 0.014173445359921088 0.01171308020094044 0.015604095587793307 0.01613310279767639 0.022067745691751173 0.01688413584065453 0.023805083821658048 0.021004717965390333 0.025161242464331258 0.030001899992153535 0.021137000893181723 0.025682427118091048 0.029759998149345011 0.033177848426008946 0.030762151590896462 0.026830571405367116 0.023448883151987961 0.027100231957216583 0.024898692627532828 0.021650314924559946 0.024978246531294577 0.019776967094456144 0.028775210580285617 0.023893078084054029 0.031486933300380875 0.034701262942970441 0.026617729567184046 0.017389528950975872 0.010315654554334879 0.0082399808923055203 0.016511971735503412 0.012288025060154362 0.017611434151150424 0.01060245385366246 0.01862329215095682 0.0087559399263032363 0.006121164459995096 0.006128962756706928 0.0070064864167354319 0.005898521852772504 0.0059550290195422356 0.0047538510454514715 0.0067411484622006005 0.0049829565452828564 0.0030450109053374742 0.0022681436204649579 0.0015835487964082511 0.0016733818064647084 0.0028729811612540923 0.00495102256642502 0.0031809948751202314 0.0068938454890156405 0.025095038724312076 0.025625166056723912 0.029129049133644773 0.029496733793998101 0.026045158345774328 0.021464831588290701 0.019449659377405368 0.023376615512144774 0.021780138955812101 0.022468433295424663 0.026382118901426013 0.02788828328335052 0.023911031033350998 0.025345687686788614 0.026525739097626885 0.022660360316032642 0.028247247437055176 0.032664941270105455 0.028256770961758666 0.032877753261574147 0.033248877437534484 0.032395086282257506 0.00011044910144532885 0.028414806312473537 0.033691999603636058 0.030774727517125802 9.8921959446717682e-05 0.036863698519345366 0.035777743848018774 0.00013367422356212717 0.033255055342791745 0.026704515027058427 0.037338801511995798 0.033780682650130629 0.031228137700437381 0.039141037107714778 0.028525235965633607 0.042082344687320743 0.041242780128929242 0.034114628123165382 0.040037511440598611 9.0060500654080979e-05 0.04953178218156909 0.044255737762549444 0.037677324260005231 0.043690141259649644 0.00038727977749768855 0.052543221429010294 0.046329927806451329 0.035950054074236064 0.047586988148774254 0.051731755684269298 0.045187694033442999 0.033479987487928214 0.022790437033673262 0.029172086395846699 0.037169914174567519 0.022648223024924904 0.02948636083652989 0.028010411546227427 0.024219026725864297 0.033902234150140376 0.024121212082539856 0.022004065826051095 0.025683210841640568 0.020771784470396369 0.019946504701468925 0.025694088326626216 0.039626539184758197 0.028203550191041704 0.044778078248487611 0.031640353480951004 0.020098854787147485 0.028190445649125866 0.041513883589405574 0.051768704833030414 0.028001233463734374 0.021154675661764231 0.030115924159488536 0.020367505661522654 0.015980960032265817 0.025921208489544264 0.023913105128378544 0.016440893800557209 0.016250075078242904 0.020043433749703316 0.019027820891477885 0.018168442640073383 0.016102004218841205 0.016315955289569316 0.01789050870162423 0.015091665287221678 0.018706150831741278 0.016621357667659681 0.016232140271912839 0.016529055688562163 0.01705520898936581 0.015306830777960781 0.018447029591853074 0.020416723664786033 0.022040395467881314 0.019251471851532413 0.020647277479966752 0.018502954273087791 0.027489596045152616 9.5249947915615355e-05 0.030380992151011969 0.024308602719351358 0.019290903708872095 0.019564401009132468 0.018402160627482428 0.019522350920306495 0.022177874988809795 0.02121652141365479 0.024503364351697181 0.023517283911820674 0.028605615537711127 0.037014470159353233 0.026218131698426801 0.033034156435890381 0.00010564991057824667 0.029889181376500477 0.032173473039688573 9.5898303051751292e-05 0.033785146846813531 8.1051480707617016e-05 0.047666212368383837 0.041987923538271382 0.032003125645052061 0.022656266741261536 0.033155676605910178 0.033592315444311086 0.035661994157579299 0.036903235944127311 0.041757345607387489 0.056519249685184243 0.047116132029758014 0.045122780242450783 0.04425778707971962 0.00019322332311261139 0.057153746996807288 0.04545848079998608 0.041063364824240597 0.03555938482237446 0.03034876005152062 0.033005232675384605 0.019743236898077464 0.014779619300397881 0.017616245823966578 0.026518191825129669 0.026549078445707933 0.021105473158914007 0.02151576061107625 0.024665893486106025 0.026112776586711964 0.035831368949362598 0.021124012139376525 0.0043499366948690351 0.0023119755913486965 0.0019524620474514476 0.003653463317289633 0.0060726255612431413 0.0095348345942602494 0.010724303101560162 0.0073164935395749415 0.012586327671213045 0.015061911698343708 0.019687152455740802 0.01562417495975315 0.013070919750255332 0.013787950096004139 0.0073845880436346142 0.012733195093814844 0.0082446721557608571 0.02227845780709678 0.013360989403485079 0.018060445978617695 0.016798903509846242 0.020739050624864978 0.020865495957411589 0.024753783845616599 0.023543775162322166 0.020797205105531347 0.024240821992330679 0.027590264861119915 0.026039670709781911 0.023332995614958663 0.022555032698229779 0.026312122966352883 0.030446509712951122 0.020824469183991577 0.030201578538186866 0.024980556631071311 0.029580732986677259 0.031139443290327241 0.024182869600027905 0.024336044549959867 0.02955256302877287 0.029936414124210473 0.025816646640522245 0.024260670208295209 0.022385795128216389 0.029921372613370405 0.025683104419044742 0.02826004602997511 0.027481345824722933 0.027314969436787372 0.030198380172862978 0.025375115819858376 0.031176779192316838 0.029706052244332252 0.023891386613652473 0.030608451773801656 0.028730914512460865 0.021690621936117437 0.023970386520182435 0.030613050473856245 0.023017851805496304 0.023858235561433676 0.028042209558762642 0.031242787729937289 0.027478616803369941 0.025405320943576986 0.028791718270804803 0.028105720383331041 0.033691923185792977 0.035640291442956856 0.029823994433379838 0.040917758916928032 0.023164325746333977 0.022761798316342261 0.030072357348050444 0.022382034518672048 0.029705131182296268 0.027661674239031792 0.023530891296572706 0.030361070502111551 0.02393918581501122 0.033013851058943264 0.030075330236116801 0.031914202019468992 0.039363018076670579 0.037050631152660614 0.047540932603570549 0.062509763130254609 0.053112761821741399 0.04250185017098438 0.042928885037441522 0.031693637925252031 0.023267380405686357 0.031896187045708332 0.031436791341483396 0.024800053622971122 0.029022444346081571 0.036049807769658479 0.038750300383910079 0.044370442955114164 0.040338157635713114 0.060866372779888753 0.02285111305021854 0.043015324735480601 0.029806916407313425 0.022877310400773693 0.024326367118635506 0.026071163249294382 0.0305864211166018 0.019974492282996751 0.024402229877479024 0.020182461295770993 0.028626851081719407 0.026075381908416049 0.023993163910452701 0.0351310431663883 0.059325650660864399 0.044150583420146113 0.084614559951853449 7.2071180884185053e-05 0.048280914239454416 0.035726553244035557 7.0309658726191778e-05 0.0520651126456095 8.3226653448614641e-05 0.033965698245243162 0.03894518792112231 0.016903700330797446 0.02036332153728837 0.015935943479889282 0.022424999645073284 0.013836662290172712 0.0069326476142884987 0.05183737328514583 0.012526181925106012 0.014488082574321768 0.017359628609884537 0.019174447276885477 0.024023670219596421 0.026128545464070806 0.031003228624233922 0.031638005540504222 0.024391003768603297 0.025759116312307935 0.02358474309608647 0.028113000502298702 0.020751028600778498 0.024512509959506705 0.024813143287789698 0.022498338045909803 0.025478162208589266 0.023538752742509335 0.022070780403343621 0.030737293580159409 0.027990695193368883 0.027492615680573828 0.027545389063089825 0.028553264229689158 0.026249909297055417 0.023658088914237537 0.024149165494548409 0.019388188270998894 0.021665573367015578 0.021523145061181016 0.019461050073477815 0.018803034645392121 0.017318432572269185 0.017530349063238079 0.01911068376996081 0.018040416970048642 0.017332759765087212 0.029913434728439998 9.2052744792553239e-05 0.02062692424370036 0.026334603645910556 0.025407052952213571 0.032539237321675539 0.018711384725938807 8.8417099120739412e-05 0.027591199551784015 0.032778600031971653 0.038307159895848396 0.017551053570909747 0.021802069185919693 0.020170078217262841 0.017227674524949638 
</DataArray>
<DataArray type="Float64" Name="cross_section_updated" format="ascii">
1 1 1 1 1 1 1 1 1 1 1 1 1 1 1 1 1 1 1 1 1 1 1 1 1 1 1 1 1 1 1 1 1 1 1 1 1 1 1 1 1 1 1 1 1 1 1 1 1 1 1 1 1 1 1 1 1 1 1 1 1 1 1 1 1 1 1 1 1 1 1 1 1 1 1 1 1 1 1 1 1 1 1 1 1 1 1 1 1 1 1 1 1 1 1 1 1 1 1 1 1 1 1 1 1 1 1 1 1 1 1 1 1 1 1 1 1 1 1 1 1 1 1 1 1 1 1 1 1 1 1 1 1 1 1 1 1 1 1 1 1 1 1 1 1 1 1 1 1 1 1 1 1 1 1 1 1 1 1 1 1 1 1 1 1 1 1 1 1 1 1 1 1 1 1 1 1 1 1 1 1 1 1 1 1 1 1 1 1 1 1 1 1 1 1 1 1 1 1 1 1 1 1 1 1 1 1 1 1 1 1 1 1 1 1 1 1 1 1 1 1 1 1 1 1 1 1 1 1 1 1 1 1 1 1 1 1 1 1 1 1 1 1 1 1 1 1 1 1 1 1 1 1 1 1 1 1 1 1 1 1 1 1 1 1 1 1 1 1 1 1 1 1 1 1 1 1 1 1 1 1 1 1 1 1 1 1 1 1 1 1 1 1 1 1 1 1 1 1 1 1 1 1 1 1 1 1 1 1 1 1 1 1 1 1 1 1 1 1 1 1 1 1 1 1 1 1 1 1 1 1 1 1 1 1 1 1 1 1 1 1 1 1 1 1 1 1 1 1 1 1 1 1 1 1 1 1 1 1 1 1 1 1 1 1 1 1 1 1 1 1 1 1 1 1 1 1 1 1 1 1 1 1 1 1 1 1 1 1 1 1 1 1 1 1 1 1 1 1 1 1 1 1 1 1 1 1 1 1 1 1 1 1 1 1 1 1 1 1 1 1 1 1 1 1 1 1 1 1 1 1 1 1 1 1 1 1 1 1 1 1 1 1 1 1 1 1 1 1 1 1 1 1 1 1 1 1 1 1 1 1 1 1 1 1 1 1 1 1 1 1 1 1 1 1 1 1 1 1 1 1 1 1 1 1 1 1 1 1 1 1 1 1 1 1 1 1 1 1 1 1 1 1 1 1 1 1 1 1 1 1 1 1 1 1 1 1 1 1 1 1 1 1 1 1 1 1 1 1 1 1 1 1 1 1 1 1 1 0.0020215108963251385 1 1 0.0020551650485108883 1 1 0.0020770170673305821 1 1 1 1 1 1 1 1 1 1 1 1 1 0.0020957048532399387 1 1 1 1 1 0.0021132533307564472 1 1 1 1 1 1 1 1 1 1 1 1 1 1 1 1 1 1 1 1 1 1 1 1 1 1 1 1 1 1 1 1 1 1 1 1 1 1 1 1 1 1 1 1 1 1 1 1 1 1 1 1 1 1 1 1 1 1 1 1 1 1 1 1 1 1 1 1 1 1 1 1 1 1 1 1 1 1 1 1 1 1 1 1 1 1 1 1 1 1 1 1 1 1 1 1 1 1 1 1 1 1 1 1 1 1 1 1 1 1 1 1 1 1 1 1 1 1 1 1 1 1 1 1 1 1 1 1 1 1 1 1 1 1 1 1 1 1 1 1 1 1 1 1 1 1 1 1 1 1 1 1 1 1 1 1 1 1 1 1 1 1 1 1 1 1 1 1 0.0021301860312923993 1 1 1 0.0021471167496745712 1 1 0.0021643918025486359 1 1 1 1 1 1 1 1 1 1 1 0.0021826328036846834 1 1 1 1 0.0022029284553852719 1 1 1 1 1 1 1 1 1 1 1 1 1 1 1 1 1 1 1 1 1 1 1 1 1 1 1 1 1 1 1 1 1 1 1 1 1 1 1 1 1 1 1 1 1 1 1 1 1 1 1 1 1 1 1 1 1 1 0.0010404136135503243 1 1 1 1 1 1 1 1 1 1 1 1 1 1 0.0010591793534377469 1 1 0.001049237043593617 1 0.0010704745357406934 1 1 1 1 1 1 1 1 1 1 1 1 1 0.001083472878589108 1 1 1 1 1 1 1 1 1 1 1 1 1 1 1 1 1 1 1 1 1 1 1 1 1 1 1 1 1 1 1 1 1 1 1 1 1 1 1 1 1 1 1 1 1 1 1 1 1 1 1 1 1 1 1 1 1 1 1 1 1 1 1 1 1 1 1 1 1 1 1 1 1 1 1 1 1 1 1 1 1 1 1 1 1 1 1 1 1 1 1 1 1 1 1 1 1 1 1 1 1 1 1 1 1 1 1 1 1 1 1 1 1 1 1 1 1 1 1 1 1 1 1 1 1 1 1 1 1 1 1 1 1 1 1 1 0.0010054513282778928 1 1 0.0010138424075933998 1 0.0010197256231035364 1 1 1 1 1 1 1 1 1 1 1 1 1 1 1 1 1 1 1 1 1 1 1 1 1 1 1 1 1 1 1 1 1 1 1 1 1 1 1 1 1 1 1 1 1 1 1 0.0010326570733970965 1 1 1 1 1 0.001025843561773431 1 1 1 1 1 1 1 
</DataArray>
<DataArray type="Float64" Name="displacement_divergence" format="ascii">
-1.7590440642822007e-05 -1.9514861462341152e-05 -1.4823171115551065e-05 -1.7037764899820498e-05 -1.6085607367422621e-05 -1.6076586937090388e-05 -1.4885127260897486e-05 -1.5788761816761416e-05 -1.4407473144518979e-05 -1.0821888170222031e-05 -1.5982117162637391e-05 -1.0164753751371411e-05 -1.9341248636645483e-05 -1.4615448293917704e-05 -2.3393302966344501e-05 -1.8479235274885658e-05 -1.5834493175019687e-05 -1.7362764712742139e-05 -2.4150816055095437e-06 -4.632529632525717e-06 -4.9121896741233235e-06 -8.9150199819644526e-06 -1.0471863890370256e-05 -6.4027399944097672e-06 -7.3671692194051255e-06 -9.5506396293458962e-06 -1.0238696099976146e-05 -9.1390092230057058e-06 -3.7822120175482529e-06 -4.5206981967091889e-06 -2.3379283480309201e-06 8.1279605369400379e-08 -8.9905506223891352e-07 -4.4325130574990741e-07 -4.7387507286944716e-06 -1.0273324587049514e-05 -8.4089548352577098e-06 -4.968109322004832e-06 -9.5008898226684704e-06 -1.1355632518280444e-05 -7.9136813460986616e-06 -5.2918236717297908e-06 -4.9284487449931723e-06 -8.2006438663855228e-07 -5.4766153670395409e-06 -3.0055202307272423e-06 2.9498697376862002e-06 -4.5012043403088912e-07 -2.3243448259533016e-05 -1.780955850987038e-05 -2.6680542626792405e-05 -1.7547655666303155e-05 -1.355898304697557e-05 -1.4836586504700197e-05 -1.5104207602916552e-05 -1.6677674600910963e-05 -1.2043236998946475e-05 -1.8167234014525281e-05 -1.4197880623319391e-05 -1.695229137155546e-05 -2.4567519036180094e-05 -2.3403874880544068e-05 -2.2075066799729988e-05 -3.0448606944103108e-05 -3.2391126300886791e-05 -2.2846048870421772e-05 -2.6682282901463723e-05 -3.658367705344388e-05 -2.7482904686625072e-05 -2.8323642906131353e-05 -2.8813685337744261e-05 -4.2110365423597958e-05 -1.5573258939833989e-05 -1.2932466901782628e-05 -2.124484502536202e-05 -2.0303837125648483e-05 -1.3074323047277524e-05 -2.3310478835247439e-05 -2.0505303461743985e-05 -1.7631638781086672e-05 -1.263373508117795e-05 -7.916750513234156e-06 -7.6228824756504251e-06 -6.1874653502048866e-06 -3.1227545226695516e-06 -1.3132636542240283e-05 1.8440980244584823e-06 -7.3108577208804074e-07 -8.2497675758520491e-07 5.9602008966738731e-06 2.9490695302385563e-06 1.1334832190979861e-06 7.2799709751857213e-06 8.959115201947435e-06 -6.8837766540922735e-06 -1.024077145842988e-05 -7.4685588385436545e-07 -2.8919273250199325e-06 -4.8624384726136e-06 -7.6097156610121152e-06 1.6081979663689131e-07 -6.9332096484144289e-06 1.7797658141183349e-05 1.3525812758472357e-06 7.4752893722183043e-06 1.1867358892393777e-05 1.8770117893525818e-05 1.5055637213536694e-05 1.4076895732588056e-05 1.5539228995781757e-05 3.0326453348327175e-05 -1.3110404196583038e-06 5.1698402622699238e-06 5.6471395195426021e-06 -6.7033693259219433e-06 -8.9188579607764643e-06 -1.6741001838914459e-05 -2.0712516016454163e-05 -2.5243857401486949e-05 -3.0305106874231662e-05 -4.3421435657560459e-05 -3.1578159103980928e-05 -3.1141274894912408e-05 -3.3873147874583285e-05 -2.6833152681407074e-05 -4.3815933424466599e-05 -3.1091035596870074e-05 -1.9375565376065555e-05 -1.3010621889526325e-05 -2.1603020760113534e-05 2.7792889976939686e-05 2.5286646700051408e-05 2.2154003893971156e-05 2.4608679366828786e-05 2.7799661249020125e-05 3.1684896550697794e-05 2.8853634298595791e-05 2.7525009475384132e-05 2.8735003223394196e-05 2.6851293951442673e-05 2.4023528276077502e-05 2.691557369149063e-05 2.6164039733137315e-05 2.6923242744022243e-05 3.0080253804890458e-05 5.6706495391099245e-05 2.6957926455119103e-05 3.9227821234798822e-05 2.5526209741586498e-05 5.3393130982760413e-05 3.4690292542352791e-05 5.337791439872485e-05 3.0066298005478042e-05 2.6001767080587394e-05 3.2420648405838222e-05 1.9340192459200552e-05 2.0415646913597168e-05 2.8520253677796086e-05 2.1594935059709664e-05 2.8006690639900161e-05 1.6987355897505868e-05 2.4752517145485966e-05 1.9220891330947095e-05 1.7454969854007674e-05 1.3132548768752559e-05 1.5033277328804561e-05 1.576861805913697e-05 1.4207090619694162e-05 8.5244194192187669e-06 1.1166812009439038e-05 9.2373250237761408e-06 6.9726161346701024e-06 4.3334364741330391e-06 1.5105369248398542e-05 1.4238383602005194e-05 1.2535182421740417e-05 1.1320238110628162e-05 1.5854981430590653e-05 1.3946968145003683e-05 1.8267368580169267e-05 1.8315976142169208e-05 1.8238763911222233e-05 1.9927627532427143e-05 1.735001342456894e-05 2.4529619240168167e-05 2.1424725880504935e-05 2.0822142110277561e-05 2.5479030859086321e-05 2.0091573438761822e-05 3.3571379019774836e-05 2.3808698407076183e-05 2.8515704315286578e-05 2.2824631110042851e-05 2.722620232654045e-05 2.7233178545825401e-05 2.2070149693626469e-05 2.2485567755099854e-05 2.2647141303440071e-05 1.9573654696189579e-05 1.5967261732639263e-05 1.8304204903441633e-05 1.8916613793140059e-05 1.5140093450015312e-05 1.3294376082448356e-05 1.4942145348247476e-05 1.6902734469258492e-05 1.4454280854385268e-05 1.3816211311435585e-05 1.16843871955046e-05 1.5302064948737401e-05 1.5088732946437184e-05 1.7430525243157589e-05 1.6212878863543197e-05 1.6435166095490109e-05 4.8893685031066981e-06 6.9184194491128538e-06 3.9452176799236761e-06 8.4818168713061683e-06 9.0755983482520596e-06 1.0176108300797711e-05 1.1397012856776895e-05 1.217161627442948e-05 1.111626549658791e-05 9.818101811245842e-06 1.0893402934731718e-05 8.6756340783753624e-06 7.1646529588512283e-06 4.0495490854898561e-06 3.1269935954689221e-06 3.3353142276561915e-06 1.9187488006981685e-07 1.9618414832235255e-06 2.5169013578010206e-07 2.2390181267655915e-06 5.427791157470531e-06 5.1651195637710632e-06 6.017386305386529e-06 7.7694416933012744e-06 8.710398560190188e-06 1.0407405017067756e-05 9.5167890113987409e-06 7.7396249435142421e-06 8.0586686849932494e-06 3.852297812355922e-06 2.9364229489958564e-06 -5.1086353930196516e-07 1.5306592643893455e-05 1.521662637794528e-05 1.3343128067047876e-05 1.3012533613810831e-05 1.1667679516841891e-05 1.322829329561596e-05 1.2588349002270804e-05 1.1362182223638072e-05 1.5250701411417146e-05 1.3537534581580619e-05 1.6325075050254565e-05 1.3833942384979124e-05 1.4650285471290016e-05 1.6986787576778336e-05 1.5256465599751514e-05 1.9449825876097917e-05 1.4559432918672916e-05 1.7405095739510409e-05 1.6595627446594203e-05 1.6501837067037138e-05 1.5151493988093538e-05 1.7619026813223247e-05 1.5343238613310546e-05 1.5010484289067165e-05 1.3458416529757008e-05 1.6029472704625085e-05 1.5606888712284102e-05 1.9203163175015077e-05 1.8839810880360586e-05 1.4470266575409994e-05 1.56702681913909e-05 1.5353727819151132e-05 1.1214559404720835e-05 9.5907087516344061e-06 6.7211448933594384e-06 1.9285926510082579e-06 4.8435624364728674e-06 7.4974871033113804e-06 1.1147963593416813e-05 4.5032052365279822e-06 9.5060918376841623e-06 1.2385284352356297e-05 1.4669320480154745e-05 1.459191195912234e-05 1.3427385556809266e-05 1.7551596487986318e-05 9.7039578529441696e-06 7.1346985482333735e-06 1.0241227869416731e-05 1.1817010974753411e-05 4.3210342347800565e-06 9.5867237387685676e-06 1.3471533033173752e-05 1.1992626066739573e-05 2.0138855041829209e-05 1.4452346278440104e-05 1.3905864473880253e-05 1.6931982701497177e-05 1.6400420328723049e-05 1.9516049467616422e-05 2.5561542883147719e-05 2.2255678902631615e-05 2.3808705675276033e-05 1.9267649954794402e-05 2.1258598994204744e-05 2.4943355803584764e-05 2.0783524718674405e-05 2.310672706020118e-05 1.8617916137121004e-05 1.8150500539112769e-05 1.7746476272199606e-05 1.9010035961028391e-05 1.5767049291181962e-05 1.803884351716847e-05 1.5699743261674748e-05 1.7023512648751052e-05 1.5815028746308336e-05 1.762749284320725e-05 1.8649683174959611e-05 -3.3541047330313798e-05 -2.3183278009350992e-05 -2.5254367066345055e-05 -2.0424439113899372e-05 -1.8612606039547194e-05 -2.2328508918341463e-05 -2.4929072816062104e-05 -2.1602013388167092e-05 -2.0271457664879613e-05 -1.7817378486441755e-05 -1.9204627084950553e-05 -1.9191167253869364e-05 -1.8044936922549413e-05 -1.1621366724690751e-05 -1.7874272848830225e-05 -2.7108574525712959e-05 -1.0894952584699463e-05 -2.1062003312147353e-05 -1.0753602474960583e-05 -9.7264478135017292e-06 -1.0913007495153016e-05 -9.3013525935880627e-06 -1.1225213659964904e-05 -4.9619170920418354e-06 -5.4174172893626363e-06 -2.4039904336137843e-06 -3.4906591653183221e-06 2.5833369364801995e-06 4.8379177417573929e-06 -1.7054867529802596e-07 -2.2045986207415804e-06 -1.6057111874921174e-06 1.2836125508294577e-06 5.6125102323228906e-06 -3.0377669316382575e-06 4.3904245285307309e-06 5.3037218755914852e-07 -4.1855014825708418e-06 5.7825503890482002e-06 -2.6991625636948484e-06 -3.9183090507561123e-07 -1.4117594388202517e-05 -1.2098221575145769e-05 -1.1593856193867055e-05 -2.111991251385865e-06 -9.371540901076515e-06 -1.9040668059152747e-05 -1.5819871788695384e-05 -2.2989654541066238e-05 -1.7571966176739415e-05 -2.3612221116256537e-05 -1.2153858823752954e-05 -2.0879569134480905e-05 -3.6266064155602795e-05 -3.7598336534831755e-05 -4.6109367137781346e-05 -3.2655607446327253e-05 -3.9048794323376452e-05 -2.4078260102747895e-05 -3.4151302507002113e-05 -2.3226935723368568e-05 -4.4808753992769819e-05 -6.8573282365240749e-05 -4.1459921224560201e-05 -4.1139856100596474e-05 -5.930792175316399e-05 -5.2234936416743241e-05 -3.4711270401886686e-05 -3.9779655209321545e-05 -3.703893878154515e-05 -2.0756280208126866e-05 -2.3424093280181896e-05 -1.7650989272062891e-05 -1.8539045001984594e-05 -2.8482643592751331e-05 -2.0145240393069171e-05 5.163223625810528e-07 1.006852130402798e-05 9.9698378575177127e-06 -1.2619925839091464e-05 -4.4604456803998142e-06 -1.6185376100190008e-05 -8.6818025177353256e-06 -5.0035127181978383e-06 4.3059002728160602e-06 -3.4211850581145571e-06 5.2127129349494695e-06 1.5391494352343589e-05 8.7762574289611743e-06 1.8594040130056808e-05 8.9601186460009343e-06 1.8422343998698116e-05 2.9854908018606901e-05 1.4611060517470727e-05 2.7882149118921802e-05 3.1698937335909418e-05 5.4660006838926393e-05 5.1761279962873503e-05 2.7088906787211951e-05 2.297056768746597e-05 5.7393816989516984e-05 9.6814560243700632e-05 9.0094719408450761e-05 9.7054899193298335e-05 6.4956742407635388e-05 4.389188488031242e-05 5.3293783102793765e-05 4.2759751195999652e-05 1.7170402370758186e-05 1.3291006682735954e-05 5.2996900834288273e-06 -4.4412476842130412e-06 2.9637156727318882e-05 -2.8545062958842558e-06 -2.5357489439162587e-05 -2.706850038621813e-05 -1.1604930803434511e-05 -1.7625747422264083e-05 -1.1030821357708878e-05 -3.0815730512614683e-05 -1.5916961348465611e-05 -2.7820649805425954e-05 -4.097906036392595e-05 -4.1438533614232315e-05 -6.4136998800288689e-05 -4.8149197436715701e-05 -6.9927576782142863e-05 -5.1593882348605454e-05 -3.8150363071662916e-05 -4.8527854137808175e-05 3.7009439480725606e-05 4.2542592414029169e-05 4.4324471470638271e-05 4.1412398705528881e-05 3.7627620451946328e-05 3.1258886318179593e-05 2.7369930549671273e-05 3.5009896729787928e-05 2.5038392445237406e-05 2.839189942000813e-05 2.1078314676119482e-05 2.8099046640700416e-05 2.4300359279401973e-05 2.9973050192441904e-05 3.1402842908514771e-05 2.7867365385111716e-05 2.5075627968883097e-05 2.0416555809799741e-05 3.1036519919139133e-05 2.805370129215828e-05 3.4716303908764532e-05 2.0003215043335316e-05 2.5770424863661422e-05 3.2744564829999907e-05 4.1290190087739785e-05 5.2668538345683507e-05 3.9176214472627191e-05 4.2730023519916848e-05 4.4233044172975588e-05 5.4266700449390471e-05 6.2608361546521448e-05 7.8219791516948627e-05 8.6913717248567017e-05 7.7019297986606448e-05 6.7474507778363219e-05 7.3886837894174024e-05 9.1075396474609577e-05 8.7190962540571103e-05 0.00015369224514917066 0.00019033400968803031 0.00017980725041716447 0.00012116928717344409 6.6039840723443915e-05 8.9967811522279702e-05 0.00011182622741371412 6.4354866662908079e-05 6.8519781164954458e-05 7.0709546882441341e-05 4.9676118329241496e-05 6.2684835830377903e-05 4.0439634133185155e-05 5.1547184999894404e-05 3.8568796205575267e-05 5.4537706506827227e-05 3.207327566838397e-05 4.0135713052137065e-05 4.5569090029644245e-05 3.721771378704912e-05 3.3113850480669701e-05 5.0608667685407384e-05 3.5569952558809457e-05 2.8953015942595164e-05 3.9507083982690146e-05 2.4440583093233531e-05 1.9693036984932548e-05 2.8414229301902677e-05 2.9160804849155257e-05 1.7321745667847908e-05 2.8556530358307187e-05 2.050704930469131e-05 2.7111654189070528e-05 4.9757678349837868e-05 4.3686960187846694e-05 4.1299881289068481e-05 4.6888482270509012e-05 6.5611274741753998e-05 7.2585197478881335e-05 8.5163723936796222e-05 0.00019951349520703425 2.6282022227103096e-05 7.8968678195030713e-05 0.00018773302733487643 0.00011465509299968469 0.011186503645771005 0.00016144778668301019 8.35332911982374e-05 0.027528263527943689 2.3262261381253306e-05 7.6802416382891315e-05 0.038561136120277818 2.8745971893355451e-05 5.4749354814966349e-05 2.3020192764142762e-05 3.4736953663301568e-05 3.153935006528386e-05 2.7208332530805654e-05 2.3964189295161051e-05 4.1313766392816196e-05 4.0018525157813187e-05 2.9031094080625235e-05 4.9736492799625203e-05 6.8267889761374932e-05 7.1608623219410455e-05 0.047875067286405545 6.7087605643315626e-05 6.5717108724099894e-05 5.9639405165899098e-05 7.0128062123582351e-05 5.422549821513785e-05 0.056656761175615952 6.7686052170195642e-05 3.3042352279560015e-05 2.4633382559860776e-05 5.0463843742659447e-05 3.7399138713240275e-05 4.00903037572952e-05 2.1642305080972197e-05 2.2150933944971459e-05 2.3758242426809582e-05 1.6529234122299446e-05 1.6553237514177748e-05 1.2083939790430795e-05 1.7157645364834827e-05 1.5270498778892274e-05 1.681377218155571e-05 1.7767301687024559e-05 1.2991070209857823e-05 2.081383930093762e-05 1.7416396692512081e-05 1.6650661681948746e-05 1.7489050643041567e-05 2.2298855180923277e-05 -3.0941746632951361e-05 -3.5049482987535162e-05 -1.9494076441791157e-05 -5.0634574020843801e-05 -5.3449375381662829e-05 -3.2677578357864475e-05 -3.1735683257298904e-05 -1.6444532620016783e-05 -4.5211707644782478e-06 9.4838519899000887e-06 -1.0173805963105105e-05 -1.625665790514028e-06 -1.8659411130485856e-05 -3.7721041033036452e-06 2.9115976409688476e-05 1.342492127301702e-05 4.9597921570134488e-05 1.6571007998726519e-05 -2.349860823213615e-06 3.0188462130431256e-05 2.5696507522871459e-05 6.9865303721000616e-05 0.00010551738778463227 7.7994699191252177e-05 7.8388408426582846e-05 4.2031089607556501e-05 5.1241779901512396e-05 5.72855266397416e-05 3.0443278779002277e-05 2.7840298011240798e-05 4.4398739651858388e-05 4.3295432738577229e-05 4.5299900189439647e-05 3.921978070722881e-05 2.8584197012755078e-05 2.6403517417545371e-05 1.3505077267775891e-05 1.43864319341866e-05 1.3777459379187441e-05 -1.1808414281870398e-07 1.6410380793153425e-05 1.8287585765826547e-05 5.3823213639599219e-06 4.8302267451211256e-06 -8.4448682214630696e-06 -7.2806122146442802e-06 -7.3429502901898799e-06 -9.6603557700186823e-06 2.4935762435026806e-06 -2.3149388729423953e-07 -2.9095338206432818e-06 -8.2654028050158264e-06 -1.0623620019965243e-05 -1.6290992582338121e-05 -6.569041120643021e-06 -1.255553355655227e-05 -2.6563308809502122e-05 -2.1721694249907499e-05 -1.8597655032018398e-05 9.1520059783956856e-07 -4.2932718109724329e-06 1.0066459868460567e-06 -5.7294012377382374e-06 -4.6282916009931455e-06 -1.0981586954183793e-05 -1.0836913699019835e-05 -6.4922584656203035e-06 -3.8818513238185817e-06 -3.6020481082674888e-08 1.760980322196206e-06 6.2657477747285126e-06 5.8704346741714902e-06 -7.8185551968129336e-07 4.8166475161864376e-06 1.5304508440312694e-05 1.7747148143283913e-05 2.417338287686319e-05 5.0019564232098648e-06 3.0036772010739836e-06 1.320939019082239e-05 1.3199087197109972e-05 1.9770766387238077e-05 1.4601778717277664e-05 3.2726523411733509e-05 3.3831823144430881e-05 2.6150213741961154e-05 3.8098010219646933e-05 5.4037514742796399e-05 4.2437451573720461e-05 5.4057880664889688e-05 2.8208774974321503e-05 3.8494651551881378e-05 5.7248881741731039e-05 4.7434123020246612e-05 6.1733758425761877e-05 5.3707405046904064e-05 7.4328818693319976e-05 8.1784298521569607e-05 5.5957087653761128e-05 4.3075051421223674e-05 1.2545030454053866e-05 1.9619888736116618e-05 2.5043791746977209e-05 1.4412569618246773e-05 3.1108967849003809e-05 2.1307358242700402e-05 2.9882470099683745e-05 7.8585973448351814e-06 6.2945257054769846e-07 5.1496531066242031e-06 2.8870436492348626e-06 7.0638153988572365e-06 5.2672601508255666e-06 1.9696265964493087e-06 5.4814818247952285e-06 3.3488168151977506e-06 1.6241021526582772e-06 2.0784182326879326e-06 1.6093541800980826e-06 8.9874164122720826e-07 2.2686069356759112e-06 3.9811323904355433e-07 8.3532280305232895e-07 -2.9767152678206871e-06 1.9214549984956919e-05 3.6498741456160292e-05 3.3969050249117055e-05 2.8612222687466791e-05 1.7238997019053929e-05 1.1027461268773436e-05 1.2230115349491145e-05 1.6256028980569058e-05 1.1367167995648671e-05 1.2121599352895183e-05 2.0219518146442016e-05 1.8599076231271623e-05 1.8136693008412812e-05 2.90107594294167e-05 2.8489961018007446e-05 4.2439033729361499e-05 6.2149307615594351e-05 7.4001171425587943e-05 4.9505894956841472e-05 6.4980044058429937e-05 8.1745516214168455e-05 6.7551662712645399e-05 0.065127755841955709 5.5348224904731326e-05 8.0598448082593033e-05 7.6912447647710293e-05 0.073590873976061733 8.2466096198357771e-05 8.7408980102321541e-05 0.082270858066848418 7.8018302236971735e-05 5.1548397030319539e-05 8.3302844943599025e-05 4.9784022996207026e-05 5.977601321307719e-05 6.8954927647002159e-05 5.4221246277142622e-05 9.5909785489030298e-05 9.8995559848089488e-05 7.7842533710641062e-05 9.9432409657900043e-05 0.091273049151817068 0.00011603557678943453 0.00010893978174878963 9.2528629080003942e-05 0.00010536168305040172 0.10192864706657222 0.00012851210121392169 0.00011245360930479823 5.4278719670119123e-05 0.00010711173955832529 0.0001249525188525267 0.00010284644489293843 6.500507651646312e-05 1.695740715653072e-05 4.1727940301939585e-05 1.3809844663684851e-05 3.7907821463058222e-05 1.9818350944277442e-05 1.934593718302724e-05 2.7351982923746406e-05 3.8125135626012772e-05 9.7838902962167108e-06 1.3336308022840172e-05 9.6219411828858269e-06 1.5714845390956809e-05 5.1841543750617619e-06 1.713168694579629e-06 -8.6164555358071281e-06 -2.1539212350600969e-06 -1.421886856478019e-05 -1.0005278501025189e-07 9.2652060092093119e-07 -1.2626116356544392e-06 2.566171605577805e-05 5.8845761682800023e-06 7.2520424902691337e-06 2.9363166062195485e-05 1.4275746252130492e-05 1.6004582473319216e-05 2.327301392996957e-05 3.0342055492755399e-05 8.7847987721336037e-06 1.2403404778385258e-05 6.5864015800142449e-06 1.1559060251297186e-05 1.1081044145189265e-05 1.3920819855310867e-05 1.3617541002792642e-05 1.0635126752386089e-05 1.621518683679249e-05 1.4262665841547066e-05 2.4712558303406026e-05 3.3153126453322598e-05 1.9243991697777342e-05 1.5937802522755871e-05 2.1652583695611974e-05 2.7876809651715818e-05 1.8426815315121178e-05 1.1997621194664962e-05 1.5251258649227443e-05 1.1596081743606515e-05 1.4482473508561036e-05 1.5938906141040073e-05 5.4965007494924088e-05 0.04044817311793375 5.7184080944346007e-05 5.0871357707478026e-05 4.3216158304919467e-05 2.7685357982137196e-05 3.1617195181699747e-05 3.1334766055955807e-05 5.4227410916245157e-05 4.4603499752913687e-05 4.9384485231168858e-05 4.0802668953845056e-05 6.797384898865025e-05 7.9690210614839253e-05 5.7734709512086927e-05 5.7804132565727768e-05 0.059236151386807927 6.6121666862593235e-05 6.4685180383527649e-05 0.04927343001299328 7.9669658212311789e-05 0.070499468360608858 0.00010013768140497805 8.9452537672858964e-05 7.5068817607651687e-05 4.5134777719365164e-05 5.784801976506577e-05 8.2235062978280307e-05 6.5787417344578952e-05 4.2153546179193792e-05 9.1698160044951875e-05 0.0001125949349320841 8.6244584841797356e-05 5.3861019382416209e-05 9.0453092036048809e-05 0.083683126655750256 0.00011817690784130495 9.7776016686498476e-05 6.7980349295558172e-05 4.2825962341182678e-05 4.3843964174888807e-05 6.0759587550285869e-05 2.9181122513713452e-05 9.7910683815201609e-06 9.6197398345289169e-06 1.5907349603309744e-05 2.4694107813221585e-05 1.3435961131877438e-05 9.875894657389089e-06 2.046808584226607e-05 4.2442814841188865e-05 5.1070294593265429e-05 3.4010858784246578e-05 2.1839158097158255e-06 2.5938553418428795e-07 1.161941272192285e-06 1.4769243943339033e-06 -8.6999902341663993e-07 5.7178438546976254e-07 4.2136137303424616e-06 -5.5967348150604349e-07 -5.2834991514473718e-07 9.2904404988395674e-07 1.0840457851951256e-06 -5.4721285541153825e-06 1.9784583418900768e-06 1.0614182980113636e-06 -2.2792914300132289e-06 -7.6259576118479401e-06 -1.0581442998550128e-06 -1.171657219577074e-05 -1.969601757650756e-06 -3.9787453762396476e-06 -1.1372828363258953e-05 -5.3655376499466857e-06 2.3509291631695038e-06 7.7995571629084319e-07 2.0121599200561679e-06 -5.6969634205043113e-06 -4.4922588202162055e-06 2.7017693137289592e-06 -7.7654937712780606e-06 -1.1166438002802601e-05 -1.4491585062575583e-05 -1.3003773888408798e-05 -2.0427616884782459e-05 -1.2292870256550969e-05 2.9401829662575917e-05 2.3752596320381894e-05 3.9441756538028923e-05 2.8932606828885928e-05 1.0567844769495305e-05 8.2411852562391461e-06 1.7736916939869053e-05 1.4619699458081736e-05 9.1702615230227695e-06 5.8175412261930693e-06 7.6479484221075086e-06 2.51603738079234e-05 2.0280973520042699e-05 4.0686726563004703e-05 3.2191008027570136e-05 3.5681921616681597e-05 2.559061761427063e-05 2.7309640197588077e-05 3.0774099358462661e-05 1.6490237642558707e-05 2.0231499656678449e-05 1.4187553679553952e-05 3.901582834336839e-06 1.6060886581302329e-06 1.4005820812068724e-05 5.9272102881972009e-06 1.1588373220752356e-05 9.7030816365451921e-07 4.2464210602991079e-06 2.4805113025686633e-05 2.925436194925685e-05 2.8405137467751385e-05 1.3621129475876266e-05 2.3320552554568358e-05 -1.9874980499567517e-05 -2.4542599411544075e-05 -2.0861358907732922e-05 -2.5704857760375406e-05 -1.5912645171634629e-05 -7.2350383138866442e-06 -1.3696786791177239e-05 -5.2330832409783418e-06 -5.3212615033076949e-06 -7.5170414272477705e-06 -5.3365523744830926e-06 -4.5298850932458433e-06 -1.0805655617033901e-05 -1.560448613501875e-05 -1.6310515679421106e-05 -1.6415368043829663e-05 -2.4746738958257835e-05 -2.435035309744524e-05 -3.0864509226084824e-05 -4.1617769708880486e-05 -3.5023950456318162e-05 -2.8784387656679666e-05 -2.3446257875619396e-05 -1.9416125188298928e-05 -7.7829749491360864e-06 -8.1134413339327459e-06 -3.7964494821429414e-06 -1.4346417932602684e-05 -1.221712953978078e-05 -1.8005720454897429e-05 -1.9414282645969496e-05 -2.8798669499422661e-05 -2.6394349557360896e-05 -4.0141949433259382e-05 1.6485415764806469e-05 3.5087365841896434e-05 1.6103734778125231e-05 1.0983720422429069e-05 2.6796589915154424e-07 3.8536886717563997e-06 1.3923118457652482e-05 5.9608987737301946e-06 -9.9012480638081954e-06 -3.4924203513190871e-06 4.5129187644677446e-06 1.9580457207315043e-05 2.1067610867128847e-05 3.7288884126583549e-05 6.1944547053108639e-05 7.0733486884592012e-06 7.6869585782188461e-05 0.0054948409498937027 3.5150008633418945e-05 3.6099828001571435e-05 0.013862357432653146 5.1966090028429451e-05 0.019750615702967728 4.1096075940331891e-05 3.4934995294267875e-05 1.3946925477658246e-05 1.5432105982962163e-05 1.8075488500063919e-05 4.0080155581865542e-06 2.1480613391120345e-05 9.4978530311049344e-06 3.5424774927617076e-05 1.8970066883691568e-05 1.4329648114284779e-05 2.4734611058737102e-05 2.068948933801281e-05 2.348692129139182e-05 3.0762835448112995e-05 2.9301951233218248e-05 2.3680144374439989e-05 1.9796928249300028e-05 2.0289907602376496e-05 1.8316967449363424e-05 1.5299886946006959e-05 1.657360180642367e-05 1.6253400384242344e-05 1.6893815142136437e-05 1.5957742782035135e-05 1.4855366848984139e-05 1.7178380124406253e-05 1.9287175903833756e-05 1.6665165711988474e-05 1.7321856681755251e-05 1.6936299513103421e-05 1.6180071533667686e-05 1.5668540769211037e-05 1.0118657680619072e-05 1.2942131990578622e-05 1.6668500716104386e-05 2.1413613654491337e-05 1.8554130824097593e-05 1.632602364512929e-05 1.6370747951480191e-05 2.1533438062848703e-05 2.38556502164983e-05 3.04357853239531e-05 2.6707231331841432e-05 2.4411772115145373e-05 3.6171291055035531e-05 5.0147600846395972e-05 0.032686761855576243 4.0820846147812494e-05 4.5683357173366326e-05 4.1905789978227649e-05 4.7469376618661458e-05 2.9329948134888272e-05 0.025869796978562429 4.1288302879379239e-05 3.2492502426281907e-05 4.6244897523060619e-05 2.1025643549192434e-05 1.7965257522685449e-05 1.9124483213723946e-05 2.6835050976525203e-05 
</DataArray>
</CellData>
</Piece>
</UnstructuredGrid>
</VTKFile>
