<?xml version="1.0"?>
<VTKFile type="UnstructuredGrid" version="0.1" byte_order="LittleEndian">
<UnstructuredGrid>
<Piece NumberOfPoints="3142" NumberOfCells="1054">
<Points>
<DataArray type="Float64" NumberOfComponents="3" format="ascii">
0.02576622439977887 0.024532886826226379 0 0 0 0 0.049999999999899652 0 0 0.02576622439977887 0.024532886826226379 0 0 0 0 0 0.050000000000207989 0 0.02576622439977887 0.024532886826226379 0 0.049999999999899652 0 0 0.053064897599215843 0.048131547304697528 0 0.02576622439977887 0.024532886826226379 0 0.053064897599215843 0.048131547304697528 0 0 0.050000000000207989 0 0 0.050000000000207989 0 0 0.10000000000041601 0 0.044310582753132287 0.101412518374475 0 0 0.10000000000041601 0 0.044310582753132287 0.101412518374475 0 0 0.15000000000062411 0 0.053064897599215843 0.048131547304697528 0 0.044310582753132287 0.101412518374475 0 0.083411279318303222 0.089699755330707398 0 0.053064897599215843 0.048131547304697528 0 0 0.050000000000207989 0 0.044310582753132287 0.101412518374475 0 0.044310582753132287 0.101412518374475 0 0.083411279318303222 0.089699755330707398 0 0.065374659239632718 0.1448908038746782 0 0.083411279318303222 0.089699755330707398 0 0.065374659239632718 0.1448908038746782 0 0.1053400320299198 0.12877248826361379 0 0.083411279318303222 0.089699755330707398 0 0.12372429750337779 0.095814237875728972 0 0.1053400320299198 0.12877248826361379 0 0.12372429750337779 0.095814237875728972 0 0.1053400320299198 0.12877248826361379 0 0.14332333627550789 0.14578431753966009 0 0.12372429750337779 0.095814237875728972 0 0.10266856499169109 0.044518360900210059 0 0.14618258501891079 0.062070108745602003 0 0.083411279318303222 0.089699755330707398 0 0.12372429750337779 0.095814237875728972 0 0.10266856499169109 0.044518360900210059 0 0.10266856499169109 0.044518360900210059 0 0.099999999999814668 0 0 0.14999999999970359 0 0 0.049999999999899652 0 0 0.053064897599215843 0.048131547304697528 0 0.099999999999814668 0 0 0.053064897599215843 0.048131547304697528 0 0.10266856499169109 0.044518360900210059 0 0.099999999999814668 0 0 0.053064897599215843 0.048131547304697528 0 0.083411279318303222 0.089699755330707398 0 0.10266856499169109 0.044518360900210059 0 0.044081577119474857 0.2271058242433576 0 0 0.20000000000083221 0 0 0.25000000000104028 0 0.044081577119474857 0.2271058242433576 0 0 0.20000000000083221 0 0.038512288486115001 0.1844147282893184 0 0.044081577119474857 0.2271058242433576 0 0.038512288486115001 0.1844147282893184 0 0.083105206071467416 0.20007701332709979 0 0.038512288486115001 0.1844147282893184 0 0 0.15000000000062411 0 0.065374659239632718 0.1448908038746782 0 0.044310582753132287 0.101412518374475 0 0 0.15000000000062411 0 0.065374659239632718 0.1448908038746782 0 0.038512288486115001 0.1844147282893184 0 0.065374659239632718 0.1448908038746782 0 0.083105206071467416 0.20007701332709979 0 0 0.20000000000083221 0 0.038512288486115001 0.1844147282893184 0 0 0.15000000000062411 0 0.065374659239632718 0.1448908038746782 0 0.1053400320299198 0.12877248826361379 0 0.106902708054812 0.16453234188234539 0 0.1053400320299198 0.12877248826361379 0 0.106902708054812 0.16453234188234539 0 0.14332333627550789 0.14578431753966009 0 0.065374659239632718 0.1448908038746782 0 0.106902708054812 0.16453234188234539 0 0.083105206071467416 0.20007701332709979 0 0.083105206071467416 0.20007701332709979 0 0.095326043202144745 0.24554465089224409 0 0.13737030665753211 0.20313708640667491 0 0.106902708054812 0.16453234188234539 0 0.083105206071467416 0.20007701332709979 0 0.13737030665753211 0.20313708640667491 0 0.044081577119474857 0.2271058242433576 0 0.083105206071467416 0.20007701332709979 0 0.095326043202144745 0.24554465089224409 0 0.044081577119474857 0.2271058242433576 0 0.095326043202144745 0.24554465089224409 0 0.049706944316556423 0.27522722923869108 0 0.095326043202144745 0.24554465089224409 0 0.14377654328998779 0.2442024734791064 0 0.13737030665753211 0.20313708640667491 0 0.17933913398461551 0.2350063570234002 0 0.14377654328998779 0.2442024734791064 0 0.13737030665753211 0.20313708640667491 0 0.17933913398461551 0.2350063570234002 0 0.13737030665753211 0.20313708640667491 0 0.18124454140915969 0.18790916706335251 0 0.18124454140915969 0.18790916706335251 0 0.14332333627550789 0.14578431753966009 0 0.18652628422869419 0.14162325200928061 0 0.106902708054812 0.16453234188234539 0 0.13737030665753211 0.20313708640667491 0 0.14332333627550789 0.14578431753966009 0 0.13737030665753211 0.20313708640667491 0 0.18124454140915969 0.18790916706335251 0 0.14332333627550789 0.14578431753966009 0 0.14332333627550789 0.14578431753966009 0 0.18652628422869419 0.14162325200928061 0 0.16141998738593399 0.10404039647458049 0 0.18652628422869419 0.14162325200928061 0 0.22985637510995899 0.1298347970200906 0 0.2185883431182947 0.18019736283949719 0 0.22985637510995899 0.1298347970200906 0 0.2185883431182947 0.18019736283949719 0 0.25557216766470708 0.15874861286892261 0 0.2185883431182947 0.18019736283949719 0 0.25557216766470708 0.15874861286892261 0 0.26429849586623999 0.19346700179430079 0 0.18124454140915969 0.18790916706335251 0 0.18652628422869419 0.14162325200928061 0 0.2185883431182947 0.18019736283949719 0 0.17933913398461551 0.2350063570234002 0 0.18124454140915969 0.18790916706335251 0 0.224700362040408 0.22206622194729711 0 0.18124454140915969 0.18790916706335251 0 0.2185883431182947 0.18019736283949719 0 0.224700362040408 0.22206622194729711 0 0.2185883431182947 0.18019736283949719 0 0.224700362040408 0.22206622194729711 0 0.26429849586623999 0.19346700179430079 0 0.224700362040408 0.22206622194729711 0 0.25195515620380449 0.25883339815888678 0 0.21049769590865089 0.26857363548218488 0 0.17933913398461551 0.2350063570234002 0 0.224700362040408 0.22206622194729711 0 0.21049769590865089 0.26857363548218488 0 0.184418230509967 0.038773194583122873 0 0.14999999999970359 0 0 0.14618258501891079 0.062070108745602003 0 0.184418230509967 0.038773194583122873 0 0.14618258501891079 0.062070108745602003 0 0.19922788606653311 0.085920220746880993 0 0.184418230509967 0.038773194583122873 0 0.14999999999970359 0 0 0.19999999999955789 0 0 0.10266856499169109 0.044518360900210059 0 0.14999999999970359 0 0 0.14618258501891079 0.062070108745602003 0 0.12372429750337779 0.095814237875728972 0 0.14618258501891079 0.062070108745602003 0 0.16141998738593399 0.10404039647458049 0 0.12372429750337779 0.095814237875728972 0 0.14332333627550789 0.14578431753966009 0 0.16141998738593399 0.10404039647458049 0 0.18652628422869419 0.14162325200928061 0 0.16141998738593399 0.10404039647458049 0 0.19922788606653311 0.085920220746880993 0 0.14618258501891079 0.062070108745602003 0 0.16141998738593399 0.10404039647458049 0 0.19922788606653311 0.085920220746880993 0 0.18652628422869419 0.14162325200928061 0 0.22985637510995899 0.1298347970200906 0 0.19922788606653311 0.085920220746880993 0 0.22985637510995899 0.1298347970200906 0 0.19922788606653311 0.085920220746880993 0 0.24218496799700481 0.089025544070598317 0 0.22985637510995899 0.1298347970200906 0 0.24218496799700481 0.089025544070598317 0 0.27474541102162192 0.11822029332053539 0 0.19922788606653311 0.085920220746880993 0 0.24218496799700481 0.089025544070598317 0 0.22668068146512929 0.045875643423131329 0 0.24218496799700481 0.089025544070598317 0 0.22668068146512929 0.045875643423131329 0 0.27499999999933927 0.060310814194988557 0 0.184418230509967 0.038773194583122873 0 0.19922788606653311 0.085920220746880993 0 0.22668068146512929 0.045875643423131329 0 0.184418230509967 0.038773194583122873 0 0.22668068146512929 0.045875643423131329 0 0.19999999999955789 0 0 0.22668068146512929 0.045875643423131329 0 0.19999999999955789 0 0 0.24999999999941211 0 0 0.24999999999941211 0 0 0.27499999999933927 0.060310814194988557 0 0.29999999999926641 0 0 0.22668068146512929 0.045875643423131329 0 0.24999999999941211 0 0 0.27499999999933927 0.060310814194988557 0 0.27499999999933927 0.060310814194988557 0 0.29999999999926641 0 0 0.32541448401678508 0.046215317981507749 0 0.29999999999926641 0 0 0.32541448401678508 0.046215317981507749 0 0.34999999999912063 0 0 0.32541448401678508 0.046215317981507749 0 0.3615861437013822 0.03582617922508851 0 0.35312867752657662 0.084946736076730367 0 0.3615861437013822 0.03582617922508851 0 0.35312867752657662 0.084946736076730367 0 0.39591832466117061 0.056982757562006353 0 0.32541448401678508 0.046215317981507749 0 0.3615861437013822 0.03582617922508851 0 0.34999999999912063 0 0 0.3615861437013822 0.03582617922508851 0 0.34999999999912063 0 0 0.3999999999989749 0 0 0.35312867752657662 0.084946736076730367 0 0.36246644853392812 0.1399454205365751 0 0.39823268594401579 0.1116623613130045 0 0.35312867752657662 0.084946736076730367 0 0.32215584939770009 0.1218492143506909 0 0.36246644853392812 0.1399454205365751 0 0.32541448401678508 0.046215317981507749 0 0.35312867752657662 0.084946736076730367 0 0.3096713403101819 0.085471541595262421 0 0.35312867752657662 0.084946736076730367 0 0.32215584939770009 0.1218492143506909 0 0.3096713403101819 0.085471541595262421 0 0.32215584939770009 0.1218492143506909 0 0.3096713403101819 0.085471541595262421 0 0.27474541102162192 0.11822029332053539 0 0.27499999999933927 0.060310814194988557 0 0.32541448401678508 0.046215317981507749 0 0.3096713403101819 0.085471541595262421 0 0.27499999999933927 0.060310814194988557 0 0.3096713403101819 0.085471541595262421 0 0.27474541102162192 0.11822029332053539 0 0.24218496799700481 0.089025544070598317 0 0.27499999999933927 0.060310814194988557 0 0.27474541102162192 0.11822029332053539 0 0.22985637510995899 0.1298347970200906 0 0.27474541102162192 0.11822029332053539 0 0.25557216766470708 0.15874861286892261 0 0.27474541102162192 0.11822029332053539 0 0.25557216766470708 0.15874861286892261 0 0.29336099386129338 0.15892013001050981 0 0.25557216766470708 0.15874861286892261 0 0.29336099386129338 0.15892013001050981 0 0.26429849586623999 0.19346700179430079 0 0.29336099386129338 0.15892013001050981 0 0.31255190597181792 0.19850845631528771 0 0.33084213324567391 0.16272720141332131 0 0.29336099386129338 0.15892013001050981 0 0.26429849586623999 0.19346700179430079 0 0.31255190597181792 0.19850845631528771 0 0.32215584939770009 0.1218492143506909 0 0.27474541102162192 0.11822029332053539 0 0.29336099386129338 0.15892013001050981 0 0.224700362040408 0.22206622194729711 0 0.28040350263641872 0.23054717217092141 0 0.25195515620380449 0.25883339815888678 0 0.224700362040408 0.22206622194729711 0 0.28040350263641872 0.23054717217092141 0 0.26429849586623999 0.19346700179430079 0 0.28040350263641872 0.23054717217092141 0 0.26429849586623999 0.19346700179430079 0 0.31255190597181792 0.19850845631528771 0 0.28040350263641872 0.23054717217092141 0 0.33758650185219202 0.23837101504325639 0 0.29132859388405002 0.27203693976649962 0 0.28040350263641872 0.23054717217092141 0 0.33758650185219202 0.23837101504325639 0 0.31255190597181792 0.19850845631528771 0 0.33758650185219202 0.23837101504325639 0 0.31255190597181792 0.19850845631528771 0 0.3572130504031617 0.1874703368446563 0 0.33758650185219202 0.23837101504325639 0 0.3572130504031617 0.1874703368446563 0 0.38831533174504851 0.2189834941785925 0 0.33758650185219202 0.23837101504325639 0 0.38831533174504851 0.2189834941785925 0 0.3786248352540974 0.27082301512024259 0 0.32215584939770009 0.1218492143506909 0 0.29336099386129338 0.15892013001050981 0 0.33084213324567391 0.16272720141332131 0 0.32215584939770009 0.1218492143506909 0 0.33084213324567391 0.16272720141332131 0 0.36246644853392812 0.1399454205365751 0 0.31255190597181792 0.19850845631528771 0 0.33084213324567391 0.16272720141332131 0 0.3572130504031617 0.1874703368446563 0 0.3572130504031617 0.1874703368446563 0 0.36246644853392812 0.1399454205365751 0 0.39801143831225599 0.16651381068160659 0 0.33084213324567391 0.16272720141332131 0 0.3572130504031617 0.1874703368446563 0 0.36246644853392812 0.1399454205365751 0 0.36246644853392812 0.1399454205365751 0 0.39801143831225599 0.16651381068160659 0 0.39823268594401579 0.1116623613130045 0 0.39801143831225599 0.16651381068160659 0 0.42905200079338551 0.19982395548231649 0 0.44288491854585582 0.14116182884956319 0 0.39801143831225599 0.16651381068160659 0 0.44288491854585582 0.14116182884956319 0 0.39823268594401579 0.1116623613130045 0 0.38831533174504851 0.2189834941785925 0 0.42377727103934271 0.25099357235810238 0 0.3786248352540974 0.27082301512024259 0 0.3572130504031617 0.1874703368446563 0 0.39801143831225599 0.16651381068160659 0 0.38831533174504851 0.2189834941785925 0 0.39801143831225599 0.16651381068160659 0 0.38831533174504851 0.2189834941785925 0 0.42905200079338551 0.19982395548231649 0 0.38831533174504851 0.2189834941785925 0 0.42905200079338551 0.19982395548231649 0 0.42377727103934271 0.25099357235810238 0 0.42905200079338551 0.19982395548231649 0 0.46429753744194407 0.22870891180733599 0 0.42377727103934271 0.25099357235810238 0 0.42905200079338551 0.19982395548231649 0 0.46429753744194407 0.22870891180733599 0 0.47357141910802508 0.1873585799078378 0 0.47357141910802508 0.1873585799078378 0 0.51729576145820033 0.1683240575987815 0 0.50760557329222289 0.20700468884612061 0 0.46429753744194407 0.22870891180733599 0 0.47357141910802508 0.1873585799078378 0 0.50760557329222289 0.20700468884612061 0 0.46429753744194407 0.22870891180733599 0 0.49695729691142171 0.25014895411178018 0 0.50760557329222289 0.20700468884612061 0 0.44288491854585582 0.14116182884956319 0 0.47357141910802508 0.1873585799078378 0 0.48466639505193998 0.1421439844745814 0 0.42905200079338551 0.19982395548231649 0 0.44288491854585582 0.14116182884956319 0 0.47357141910802508 0.1873585799078378 0 0.47357141910802508 0.1873585799078378 0 0.48466639505193998 0.1421439844745814 0 0.51729576145820033 0.1683240575987815 0 0.44288491854585582 0.14116182884956319 0 0.48466639505193998 0.1421439844745814 0 0.47881186583059909 0.093591717165689425 0 0.48466639505193998 0.1421439844745814 0 0.47881186583059909 0.093591717165689425 0 0.51076801031701946 0.1202837388510348 0 0.44288491854585582 0.14116182884956319 0 0.47881186583059909 0.093591717165689425 0 0.43698630808430822 0.080423614171545449 0 0.47881186583059909 0.093591717165689425 0 0.47040171442036788 0.044141676406503738 0 0.43698630808430822 0.080423614171545449 0 0.47881186583059909 0.093591717165689425 0 0.47040171442036788 0.044141676406503738 0 0.52375890611712683 0.059318771819432882 0 0.47040171442036788 0.044141676406503738 0 0.49999999999869432 0 0 0.52375890611712683 0.059318771819432882 0 0.47040171442036788 0.044141676406503738 0 0.49999999999869432 0 0 0.44999999999882923 0 0 0.47040171442036788 0.044141676406503738 0 0.44999999999882923 0 0 0.4320097814748517 0.037406712692169303 0 0.47040171442036788 0.044141676406503738 0 0.4320097814748517 0.037406712692169303 0 0.43698630808430822 0.080423614171545449 0 0.4320097814748517 0.037406712692169303 0 0.3999999999989749 0 0 0.39591832466117061 0.056982757562006353 0 0.4320097814748517 0.037406712692169303 0 0.39591832466117061 0.056982757562006353 0 0.43698630808430822 0.080423614171545449 0 0.44999999999882923 0 0 0.4320097814748517 0.037406712692169303 0 0.3999999999989749 0 0 0.3615861437013822 0.03582617922508851 0 0.3999999999989749 0 0 0.39591832466117061 0.056982757562006353 0 0.35312867752657662 0.084946736076730367 0 0.39591832466117061 0.056982757562006353 0 0.39823268594401579 0.1116623613130045 0 0.44288491854585582 0.14116182884956319 0 0.39823268594401579 0.1116623613130045 0 0.43698630808430822 0.080423614171545449 0 0.39591832466117061 0.056982757562006353 0 0.39823268594401579 0.1116623613130045 0 0.43698630808430822 0.080423614171545449 0 0.42161023666869668 0.39493916313643851 0 0.38707855792647411 0.42299362914874578 0 0.43249999999999988 0.43937499999999979 0 0.42161023666869668 0.39493916313643851 0 0.38083244760691543 0.38531983672244652 0 0.38707855792647411 0.42299362914874578 0 0.42161023666869668 0.39493916313643851 0 0.38083244760691543 0.38531983672244652 0 0.40076539126862748 0.34589349467022118 0 0.38707855792647411 0.42299362914874578 0 0.3908716102680424 0.47010282357248828 0 0.43249999999999988 0.43937499999999979 0 0.3908716102680424 0.47010282357248828 0 0.43507373378304309 0.49699695397193322 0 0.38244435121258652 0.51653317813019495 0 0.3908716102680424 0.47010282357248828 0 0.43507373378304309 0.49699695397193322 0 0.43249999999999988 0.43937499999999979 0 0.43507373378304309 0.49699695397193322 0 0.43249999999999988 0.43937499999999979 0 0.46111841286828259 0.46690301029591341 0 0.43249999999999988 0.43937499999999979 0 0.46111841286828259 0.46690301029591341 0 0.48858720058566618 0.43964267759203868 0 0.43507373378304309 0.49699695397193322 0 0.46111841286828259 0.46690301029591341 0 0.49102375406324739 0.49123754822244059 0 0.46111841286828259 0.46690301029591341 0 0.49102375406324739 0.49123754822244059 0 0.48858720058566618 0.43964267759203868 0 0.48858720058566618 0.43964267759203868 0 0.46655310992796922 0.39650496622958609 0 0.52289427570932567 0.3932284363388488 0 0.43249999999999988 0.43937499999999979 0 0.48858720058566618 0.43964267759203868 0 0.46655310992796922 0.39650496622958609 0 0.42161023666869668 0.39493916313643851 0 0.43249999999999988 0.43937499999999979 0 0.46655310992796922 0.39650496622958609 0 0.42161023666869668 0.39493916313643851 0 0.46655310992796922 0.39650496622958609 0 0.4409427642593301 0.35743108089689513 0 0.46655310992796922 0.39650496622958609 0 0.49077833859261139 0.35229981449445641 0 0.52289427570932567 0.3932284363388488 0 0.49077833859261139 0.35229981449445641 0 0.46226845272279993 0.31901800744800313 0 0.5 0.29999999999999999 0 0.49077833859261139 0.35229981449445641 0 0.46226845272279993 0.31901800744800313 0 0.4409427642593301 0.35743108089689513 0 0.46226845272279993 0.31901800744800313 0 0.4409427642593301 0.35743108089689513 0 0.41914690343363781 0.30688979866601612 0 0.46655310992796922 0.39650496622958609 0 0.49077833859261139 0.35229981449445641 0 0.4409427642593301 0.35743108089689513 0 0.49695729691142171 0.25014895411178018 0 0.4604742573284204 0.27846934318264788 0 0.5 0.29999999999999999 0 0.46429753744194407 0.22870891180733599 0 0.49695729691142171 0.25014895411178018 0 0.4604742573284204 0.27846934318264788 0 0.46226845272279993 0.31901800744800313 0 0.4604742573284204 0.27846934318264788 0 0.5 0.29999999999999999 0 0.46226845272279993 0.31901800744800313 0 0.4604742573284204 0.27846934318264788 0 0.41914690343363781 0.30688979866601612 0 0.46429753744194407 0.22870891180733599 0 0.4604742573284204 0.27846934318264788 0 0.42377727103934271 0.25099357235810238 0 0.4604742573284204 0.27846934318264788 0 0.42377727103934271 0.25099357235810238 0 0.41914690343363781 0.30688979866601612 0 0.42377727103934271 0.25099357235810238 0 0.41914690343363781 0.30688979866601612 0 0.3786248352540974 0.27082301512024259 0 0.41914690343363781 0.30688979866601612 0 0.3786248352540974 0.27082301512024259 0 0.36575549820117997 0.31677992835137742 0 0.42161023666869668 0.39493916313643851 0 0.4409427642593301 0.35743108089689513 0 0.40076539126862748 0.34589349467022118 0 0.4409427642593301 0.35743108089689513 0 0.41914690343363781 0.30688979866601612 0 0.40076539126862748 0.34589349467022118 0 0.41914690343363781 0.30688979866601612 0 0.40076539126862748 0.34589349467022118 0 0.36575549820117997 0.31677992835137742 0 0.40076539126862748 0.34589349467022118 0 0.36575549820117997 0.31677992835137742 0 0.33277555741076909 0.36432196682010132 0 0.38083244760691543 0.38531983672244652 0 0.40076539126862748 0.34589349467022118 0 0.33277555741076909 0.36432196682010132 0 0.36575549820117997 0.31677992835137742 0 0.32752639306529541 0.32610012995269699 0 0.33277555741076909 0.36432196682010132 0 0.32752639306529541 0.32610012995269699 0 0.33277555741076909 0.36432196682010132 0 0.29644548887253103 0.34914008784168082 0 0.33758650185219202 0.23837101504325639 0 0.3786248352540974 0.27082301512024259 0 0.33402499257867951 0.28911035184473982 0 0.3786248352540974 0.27082301512024259 0 0.36575549820117997 0.31677992835137742 0 0.33402499257867951 0.28911035184473982 0 0.36575549820117997 0.31677992835137742 0 0.32752639306529541 0.32610012995269699 0 0.33402499257867951 0.28911035184473982 0 0.32752639306529541 0.32610012995269699 0 0.33402499257867951 0.28911035184473982 0 0.29348325746214782 0.31350119524708198 0 0.33758650185219202 0.23837101504325639 0 0.33402499257867951 0.28911035184473982 0 0.29132859388405002 0.27203693976649962 0 0.33402499257867951 0.28911035184473982 0 0.29132859388405002 0.27203693976649962 0 0.29348325746214782 0.31350119524708198 0 0.29132859388405002 0.27203693976649962 0 0.29348325746214782 0.31350119524708198 0 0.24432083401701241 0.3006253385567515 0 0.29132859388405002 0.27203693976649962 0 0.25195515620380449 0.25883339815888678 0 0.24432083401701241 0.3006253385567515 0 0.28040350263641872 0.23054717217092141 0 0.29132859388405002 0.27203693976649962 0 0.25195515620380449 0.25883339815888678 0 0.33277555741076909 0.36432196682010132 0 0.29644548887253103 0.34914008784168082 0 0.27866744612395528 0.38416094670951489 0 0.32752639306529541 0.32610012995269699 0 0.29644548887253103 0.34914008784168082 0 0.29348325746214782 0.31350119524708198 0 0.29644548887253103 0.34914008784168082 0 0.29348325746214782 0.31350119524708198 0 0.25966125648670141 0.34351016742083729 0 0.29348325746214782 0.31350119524708198 0 0.25966125648670141 0.34351016742083729 0 0.24432083401701241 0.3006253385567515 0 0.29644548887253103 0.34914008784168082 0 0.25966125648670141 0.34351016742083729 0 0.27866744612395528 0.38416094670951489 0 0.25966125648670141 0.34351016742083729 0 0.27866744612395528 0.38416094670951489 0 0.22033343844674469 0.36963382230740238 0 0.27866744612395528 0.38416094670951489 0 0.29124338931648802 0.43334555462578611 0 0.24049127783545701 0.41270748208749802 0 0.29124338931648802 0.43334555462578611 0 0.25982634974572738 0.46097799597715272 0 0.24049127783545701 0.41270748208749802 0 0.27866744612395528 0.38416094670951489 0 0.29124338931648802 0.43334555462578611 0 0.31778888742534622 0.40581751814196781 0 0.33277555741076909 0.36432196682010132 0 0.27866744612395528 0.38416094670951489 0 0.31778888742534622 0.40581751814196781 0 0.33277555741076909 0.36432196682010132 0 0.31778888742534622 0.40581751814196781 0 0.35221190152536241 0.40457127605439203 0 0.31778888742534622 0.40581751814196781 0 0.35221190152536241 0.40457127605439203 0 0.34258405725730701 0.4444034294386992 0 0.29124338931648802 0.43334555462578611 0 0.31778888742534622 0.40581751814196781 0 0.34258405725730701 0.4444034294386992 0 0.38707855792647411 0.42299362914874578 0 0.35221190152536241 0.40457127605439203 0 0.34258405725730701 0.4444034294386992 0 0.38083244760691543 0.38531983672244652 0 0.38707855792647411 0.42299362914874578 0 0.35221190152536241 0.40457127605439203 0 0.38083244760691543 0.38531983672244652 0 0.33277555741076909 0.36432196682010132 0 0.35221190152536241 0.40457127605439203 0 0.3908716102680424 0.47010282357248828 0 0.35024835142131061 0.48654922671676981 0 0.38244435121258652 0.51653317813019495 0 0.3908716102680424 0.47010282357248828 0 0.35024835142131061 0.48654922671676981 0 0.34258405725730701 0.4444034294386992 0 0.38707855792647411 0.42299362914874578 0 0.3908716102680424 0.47010282357248828 0 0.34258405725730701 0.4444034294386992 0 0.29124338931648802 0.43334555462578611 0 0.34258405725730701 0.4444034294386992 0 0.31068898841644388 0.47541502461811092 0 0.35024835142131061 0.48654922671676981 0 0.31068898841644388 0.47541502461811092 0 0.33190227185843768 0.52715113583864037 0 0.35024835142131061 0.48654922671676981 0 0.34258405725730701 0.4444034294386992 0 0.31068898841644388 0.47541502461811092 0 0.31068898841644388 0.47541502461811092 0 0.25982634974572738 0.46097799597715272 0 0.28307294598219601 0.50789252727458634 0 0.29124338931648802 0.43334555462578611 0 0.31068898841644388 0.47541502461811092 0 0.25982634974572738 0.46097799597715272 0 0.25982634974572738 0.46097799597715272 0 0.23975172658309729 0.49475499200540818 0 0.28307294598219601 0.50789252727458634 0 0.23975172658309729 0.49475499200540818 0 0.19604738184454831 0.47787523520405789 0 0.22278230690790279 0.44824268025881547 0 0.19604738184454831 0.47787523520405789 0 0.22278230690790279 0.44824268025881547 0 0.191953871957803 0.42546416763755879 0 0.25982634974572738 0.46097799597715272 0 0.22278230690790279 0.44824268025881547 0 0.24049127783545701 0.41270748208749802 0 0.25982634974572738 0.46097799597715272 0 0.23975172658309729 0.49475499200540818 0 0.22278230690790279 0.44824268025881547 0 0.27866744612395528 0.38416094670951489 0 0.24049127783545701 0.41270748208749802 0 0.22033343844674469 0.36963382230740238 0 0.191953871957803 0.42546416763755879 0 0.1650278706801647 0.38791388161335733 0 0.22033343844674469 0.36963382230740238 0 0.24049127783545701 0.41270748208749802 0 0.191953871957803 0.42546416763755879 0 0.22033343844674469 0.36963382230740238 0 0.22278230690790279 0.44824268025881547 0 0.24049127783545701 0.41270748208749802 0 0.191953871957803 0.42546416763755879 0 0.191953871957803 0.42546416763755879 0 0.13773355295499351 0.42497777642586831 0 0.15801167086041079 0.46008690540259539 0 0.191953871957803 0.42546416763755879 0 0.1650278706801647 0.38791388161335733 0 0.13773355295499351 0.42497777642586831 0 0.1650278706801647 0.38791388161335733 0 0.13773355295499351 0.42497777642586831 0 0.1117088112799664 0.38831403004970022 0 0.13773355295499351 0.42497777642586831 0 0.15801167086041079 0.46008690540259539 0 0.113541300460994 0.46208784312094731 0 0.15801167086041079 0.46008690540259539 0 0.113541300460994 0.46208784312094731 0 0.1216098864341134 0.50637075089503902 0 0.15801167086041079 0.46008690540259539 0 0.1216098864341134 0.50637075089503902 0 0.16618607197337229 0.50652878253548905 0 0.19604738184454831 0.47787523520405789 0 0.15801167086041079 0.46008690540259539 0 0.16618607197337229 0.50652878253548905 0 0.19604738184454831 0.47787523520405789 0 0.191953871957803 0.42546416763755879 0 0.15801167086041079 0.46008690540259539 0 0.25195515620380449 0.25883339815888678 0 0.21049769590865089 0.26857363548218488 0 0.24432083401701241 0.3006253385567515 0 0.21049769590865089 0.26857363548218488 0 0.24432083401701241 0.3006253385567515 0 0.19670163708476801 0.31472518408333222 0 0.21049769590865089 0.26857363548218488 0 0.19670163708476801 0.31472518408333222 0 0.168349569971391 0.28054490850913671 0 0.19670163708476801 0.31472518408333222 0 0.22615676742807109 0.33458786033114157 0 0.18434624290945251 0.35208838264196463 0 0.24432083401701241 0.3006253385567515 0 0.19670163708476801 0.31472518408333222 0 0.22615676742807109 0.33458786033114157 0 0.25966125648670141 0.34351016742083729 0 0.24432083401701241 0.3006253385567515 0 0.22615676742807109 0.33458786033114157 0 0.25966125648670141 0.34351016742083729 0 0.22615676742807109 0.33458786033114157 0 0.22033343844674469 0.36963382230740238 0 0.22615676742807109 0.33458786033114157 0 0.22033343844674469 0.36963382230740238 0 0.18434624290945251 0.35208838264196463 0 0.1650278706801647 0.38791388161335733 0 0.22033343844674469 0.36963382230740238 0 0.18434624290945251 0.35208838264196463 0 0.1650278706801647 0.38791388161335733 0 0.18434624290945251 0.35208838264196463 0 0.14223753364722069 0.3341983344262433 0 0.1650278706801647 0.38791388161335733 0 0.14223753364722069 0.3341983344262433 0 0.1117088112799664 0.38831403004970022 0 0.19670163708476801 0.31472518408333222 0 0.18434624290945251 0.35208838264196463 0 0.14223753364722069 0.3341983344262433 0 0.19670163708476801 0.31472518408333222 0 0.14223753364722069 0.3341983344262433 0 0.168349569971391 0.28054490850913671 0 0.14223753364722069 0.3341983344262433 0 0.168349569971391 0.28054490850913671 0 0.1247745017231483 0.27198077544791172 0 0.14377654328998779 0.2442024734791064 0 0.168349569971391 0.28054490850913671 0 0.1247745017231483 0.27198077544791172 0 0.17933913398461551 0.2350063570234002 0 0.21049769590865089 0.26857363548218488 0 0.168349569971391 0.28054490850913671 0 0.17933913398461551 0.2350063570234002 0 0.14377654328998779 0.2442024734791064 0 0.168349569971391 0.28054490850913671 0 0.095326043202144745 0.24554465089224409 0 0.093851963071650835 0.30582068233324772 0 0.049706944316556423 0.27522722923869108 0 0.095326043202144745 0.24554465089224409 0 0.14377654328998779 0.2442024734791064 0 0.1247745017231483 0.27198077544791172 0 0.095326043202144745 0.24554465089224409 0 0.1247745017231483 0.27198077544791172 0 0.093851963071650835 0.30582068233324772 0 0.14223753364722069 0.3341983344262433 0 0.1247745017231483 0.27198077544791172 0 0.093851963071650835 0.30582068233324772 0 0.093851963071650835 0.30582068233324772 0 0.046389130980076937 0.32668781832131749 0 0.049706944316556423 0.27522722923869108 0 0.093851963071650835 0.30582068233324772 0 0.087545339447545459 0.35122518864182262 0 0.046389130980076937 0.32668781832131749 0 0.14223753364722069 0.3341983344262433 0 0.093851963071650835 0.30582068233324772 0 0.087545339447545459 0.35122518864182262 0 0.14223753364722069 0.3341983344262433 0 0.087545339447545459 0.35122518864182262 0 0.1117088112799664 0.38831403004970022 0 0.087545339447545459 0.35122518864182262 0 0.1117088112799664 0.38831403004970022 0 0.050583896093752537 0.38543522283434112 0 0.087545339447545459 0.35122518864182262 0 0.046389130980076937 0.32668781832131749 0 0.050583896093752537 0.38543522283434112 0 0 0.35000000000145642 0 0.046389130980076937 0.32668781832131749 0 0.050583896093752537 0.38543522283434112 0 0 0.35000000000145642 0 0.046389130980076937 0.32668781832131749 0 0 0.30000000000124832 0 0.046389130980076937 0.32668781832131749 0 0 0.30000000000124832 0 0.049706944316556423 0.27522722923869108 0 0 0.30000000000124832 0 0 0.25000000000104028 0 0.049706944316556423 0.27522722923869108 0 0.044081577119474857 0.2271058242433576 0 0 0.25000000000104028 0 0.049706944316556423 0.27522722923869108 0 0.068743045408989428 0.48853989837882689 0 0.113541300460994 0.46208784312094731 0 0.078358742472063481 0.43365249433908948 0 0.068743045408989428 0.48853989837882689 0 0.113541300460994 0.46208784312094731 0 0.1216098864341134 0.50637075089503902 0 0.13773355295499351 0.42497777642586831 0 0.113541300460994 0.46208784312094731 0 0.078358742472063481 0.43365249433908948 0 0.13773355295499351 0.42497777642586831 0 0.1117088112799664 0.38831403004970022 0 0.078358742472063481 0.43365249433908948 0 0.1117088112799664 0.38831403004970022 0 0.078358742472063481 0.43365249433908948 0 0.050583896093752537 0.38543522283434112 0 0.078358742472063481 0.43365249433908948 0 0.035463093262830522 0.42673416072819947 0 0.050583896093752537 0.38543522283434112 0 0 0.35000000000145642 0 0.050583896093752537 0.38543522283434112 0 0 0.40000000000166441 0 0.035463093262830522 0.42673416072819947 0 0.050583896093752537 0.38543522283434112 0 0 0.40000000000166441 0 0.035463093262830522 0.42673416072819947 0 0 0.40000000000166441 0 0 0.45000000000187229 0 0.035463093262830522 0.42673416072819947 0 0 0.45000000000187229 0 0.033550201249889847 0.46247875832467239 0 0.068743045408989428 0.48853989837882689 0 0.033550201249889847 0.46247875832467239 0 0 0.50000000000205869 0 0.068743045408989428 0.48853989837882689 0 0.078358742472063481 0.43365249433908948 0 0.033550201249889847 0.46247875832467239 0 0.078358742472063481 0.43365249433908948 0 0.035463093262830522 0.42673416072819947 0 0.033550201249889847 0.46247875832467239 0 0 0.45000000000187229 0 0.033550201249889847 0.46247875832467239 0 0 0.50000000000205869 0 0.068743045408989428 0.48853989837882689 0 0 0.50000000000205869 0 0.044576108720083309 0.53509043209532614 0 0 0.50000000000205869 0 0 0.55000000000173355 0 0.044576108720083309 0.53509043209532614 0 0 0.55000000000173355 0 0.044576108720083309 0.53509043209532614 0 0.034381862692950467 0.57372682250960894 0 0.044576108720083309 0.53509043209532614 0 0.077693244765132896 0.56932317963405099 0 0.034381862692950467 0.57372682250960894 0 0.068743045408989428 0.48853989837882689 0 0.044576108720083309 0.53509043209532614 0 0.085622222639554768 0.53333248912060549 0 0.068743045408989428 0.48853989837882689 0 0.085622222639554768 0.53333248912060549 0 0.1216098864341134 0.50637075089503902 0 0.044576108720083309 0.53509043209532614 0 0.085622222639554768 0.53333248912060549 0 0.077693244765132896 0.56932317963405099 0 0.085622222639554768 0.53333248912060549 0 0.1154888278694548 0.56733818459978413 0 0.077693244765132896 0.56932317963405099 0 0.085622222639554768 0.53333248912060549 0 0.1216098864341134 0.50637075089503902 0 0.1154888278694548 0.56733818459978413 0 0.1024350934457823 0.60772393977513839 0 0.1154888278694548 0.56733818459978413 0 0.077693244765132896 0.56932317963405099 0 0.1024350934457823 0.60772393977513839 0 0.050069554451969707 0.61308520079857043 0 0.086179601630648681 0.64647209519980475 0 0.1024350934457823 0.60772393977513839 0 0.077693244765132896 0.56932317963405099 0 0.050069554451969707 0.61308520079857043 0 0.077693244765132896 0.56932317963405099 0 0.050069554451969707 0.61308520079857043 0 0.034381862692950467 0.57372682250960894 0 0 0.55000000000173355 0 0.034381862692950467 0.57372682250960894 0 0 0.60000000000138687 0 0.050069554451969707 0.61308520079857043 0 0 0.60000000000138687 0 0 0.65000000000104008 0 0.050069554451969707 0.61308520079857043 0 0.034381862692950467 0.57372682250960894 0 0 0.60000000000138687 0 0 0.65000000000104008 0 0.046634677244967337 0.671418230738282 0 0 0.7000000000006934 0 0.050069554451969707 0.61308520079857043 0 0.046634677244967337 0.671418230738282 0 0.086179601630648681 0.64647209519980475 0 0.050069554451969707 0.61308520079857043 0 0 0.65000000000104008 0 0.046634677244967337 0.671418230738282 0 0 0.7000000000006934 0 0.049706944316475897 0.72477277076253799 0 0 0.75000000000034661 0 0.046634677244967337 0.671418230738282 0 0 0.7000000000006934 0 0.049706944316475897 0.72477277076253799 0 0.049706944316475897 0.72477277076253799 0 0 0.75000000000034661 0 0.04408157711937423 0.7728941757575627 0 0.049706944316475897 0.72477277076253799 0 0.1020579365089687 0.69352219419301997 0 0.090953281884486245 0.7564451946902494 0 0.1020579365089687 0.69352219419301997 0 0.1215415378367805 0.72939333680004137 0 0.090953281884486245 0.7564451946902494 0 0.046634677244967337 0.671418230738282 0 0.049706944316475897 0.72477277076253799 0 0.1020579365089687 0.69352219419301997 0 0.1215415378367805 0.72939333680004137 0 0.090953281884486245 0.7564451946902494 0 0.14335651144331049 0.75565258250209677 0 0.046634677244967337 0.671418230738282 0 0.1020579365089687 0.69352219419301997 0 0.086179601630648681 0.64647209519980475 0 0.1020579365089687 0.69352219419301997 0 0.086179601630648681 0.64647209519980475 0 0.1241190223511371 0.64391885572885044 0 0.1024350934457823 0.60772393977513839 0 0.086179601630648681 0.64647209519980475 0 0.1241190223511371 0.64391885572885044 0 0.1020579365089687 0.69352219419301997 0 0.1241190223511371 0.64391885572885044 0 0.16500388252850301 0.66612077714085194 0 0.1241190223511371 0.64391885572885044 0 0.16500388252850301 0.66612077714085194 0 0.15720202157091859 0.60665697304410315 0 0.16500388252850301 0.66612077714085194 0 0.19914261668318661 0.62286739485272158 0 0.15720202157091859 0.60665697304410315 0 0.1020579365089687 0.69352219419301997 0 0.16500388252850301 0.66612077714085194 0 0.15332765547575641 0.71200081858233666 0 0.1215415378367805 0.72939333680004137 0 0.15332765547575641 0.71200081858233666 0 0.14335651144331049 0.75565258250209677 0 0.1020579365089687 0.69352219419301997 0 0.1215415378367805 0.72939333680004137 0 0.15332765547575641 0.71200081858233666 0 0.16500388252850301 0.66612077714085194 0 0.15332765547575641 0.71200081858233666 0 0.19068556247388771 0.71028988922845504 0 0.15332765547575641 0.71200081858233666 0 0.14335651144331049 0.75565258250209677 0 0.18269480424590959 0.75905448272264375 0 0.15332765547575641 0.71200081858233666 0 0.19068556247388771 0.71028988922845504 0 0.18269480424590959 0.75905448272264375 0 0.19068556247388771 0.71028988922845504 0 0.2248999640082178 0.72584299459689172 0 0.18269480424590959 0.75905448272264375 0 0.19068556247388771 0.71028988922845504 0 0.2248999640082178 0.72584299459689172 0 0.2236846579037573 0.67380363126050236 0 0.2248999640082178 0.72584299459689172 0 0.2236846579037573 0.67380363126050236 0 0.26439878998046262 0.7048065392091396 0 0.2248999640082178 0.72584299459689172 0 0.22556077506376701 0.77837424984191617 0 0.25676291524611189 0.7436741304886243 0 0.2248999640082178 0.72584299459689172 0 0.25676291524611189 0.7436741304886243 0 0.26439878998046262 0.7048065392091396 0 0.16500388252850301 0.66612077714085194 0 0.2236846579037573 0.67380363126050236 0 0.19914261668318661 0.62286739485272158 0 0.16500388252850301 0.66612077714085194 0 0.19068556247388771 0.71028988922845504 0 0.2236846579037573 0.67380363126050236 0 0.2236846579037573 0.67380363126050236 0 0.2459498854893499 0.63248470766216769 0 0.19914261668318661 0.62286739485272158 0 0.2236846579037573 0.67380363126050236 0 0.2459498854893499 0.63248470766216769 0 0.27820712747429932 0.65530134213254643 0 0.2459498854893499 0.63248470766216769 0 0.19914261668318661 0.62286739485272158 0 0.22549374774072969 0.58452645269293457 0 0.2459498854893499 0.63248470766216769 0 0.22549374774072969 0.58452645269293457 0 0.26573297623774761 0.59828298563722948 0 0.19914261668318661 0.62286739485272158 0 0.22549374774072969 0.58452645269293457 0 0.18381867841758909 0.57774125163628387 0 0.22549374774072969 0.58452645269293457 0 0.20050006573841939 0.53248514016039872 0 0.18381867841758909 0.57774125163628387 0 0.22549374774072969 0.58452645269293457 0 0.25115337790845271 0.54719303014923271 0 0.26573297623774761 0.59828298563722948 0 0.22549374774072969 0.58452645269293457 0 0.20050006573841939 0.53248514016039872 0 0.25115337790845271 0.54719303014923271 0 0.23975172658309729 0.49475499200540818 0 0.20050006573841939 0.53248514016039872 0 0.25115337790845271 0.54719303014923271 0 0.19604738184454831 0.47787523520405789 0 0.20050006573841939 0.53248514016039872 0 0.16618607197337229 0.50652878253548905 0 0.23975172658309729 0.49475499200540818 0 0.19604738184454831 0.47787523520405789 0 0.20050006573841939 0.53248514016039872 0 0.20050006573841939 0.53248514016039872 0 0.14934928745814749 0.55042914607228977 0 0.18381867841758909 0.57774125163628387 0 0.20050006573841939 0.53248514016039872 0 0.16618607197337229 0.50652878253548905 0 0.14934928745814749 0.55042914607228977 0 0.1216098864341134 0.50637075089503902 0 0.16618607197337229 0.50652878253548905 0 0.14934928745814749 0.55042914607228977 0 0.1216098864341134 0.50637075089503902 0 0.1154888278694548 0.56733818459978413 0 0.14934928745814749 0.55042914607228977 0 0.1154888278694548 0.56733818459978413 0 0.14934928745814749 0.55042914607228977 0 0.15720202157091859 0.60665697304410315 0 0.1024350934457823 0.60772393977513839 0 0.1154888278694548 0.56733818459978413 0 0.15720202157091859 0.60665697304410315 0 0.1024350934457823 0.60772393977513839 0 0.1241190223511371 0.64391885572885044 0 0.15720202157091859 0.60665697304410315 0 0.19914261668318661 0.62286739485272158 0 0.15720202157091859 0.60665697304410315 0 0.18381867841758909 0.57774125163628387 0 0.14934928745814749 0.55042914607228977 0 0.15720202157091859 0.60665697304410315 0 0.18381867841758909 0.57774125163628387 0 0.10000000000041601 1 0 0.10266856499240549 0.95548163909968886 0 0.15000000000062411 1 0 0.10266856499240549 0.95548163909968886 0 0.053064897599294662 0.95186845269532028 0 0.083411279318375747 0.91030024466934134 0 0.10000000000041601 1 0 0.050000000000207989 1 0 0.053064897599294662 0.95186845269532028 0 0.10000000000041601 1 0 0.10266856499240549 0.95548163909968886 0 0.053064897599294662 0.95186845269532028 0 0.050000000000207989 1 0 0.025766224399875661 0.97546711317377799 0 0.053064897599294662 0.95186845269532028 0 0.050000000000207989 1 0 0 1 0 0.025766224399875661 0.97546711317377799 0 0 1 0 0.025766224399875661 0.97546711317377799 0 0 0.94999999999979179 0 0.025766224399875661 0.97546711317377799 0 0 0.94999999999979179 0 0.053064897599294662 0.95186845269532028 0 0 0.94999999999979179 0 0.053064897599294662 0.95186845269532028 0 0.0443105827531413 0.89858748162559932 0 0.053064897599294662 0.95186845269532028 0 0.0443105827531413 0.89858748162559932 0 0.083411279318375747 0.91030024466934134 0 0 0.94999999999979179 0 0 0.89999999999958358 0 0.0443105827531413 0.89858748162559932 0 0 0.89999999999958358 0 0.0443105827531413 0.89858748162559932 0 0 0.84999999999965292 0 0.0443105827531413 0.89858748162559932 0 0.083411279318375747 0.91030024466934134 0 0.065374659239661639 0.8551091961254178 0 0.083411279318375747 0.91030024466934134 0 0.10562472963403439 0.87143394428979881 0 0.065374659239661639 0.8551091961254178 0 0.10266856499240549 0.95548163909968886 0 0.083411279318375747 0.91030024466934134 0 0.1241151115713819 0.9045666525468371 0 0.10266856499240549 0.95548163909968886 0 0.1241151115713819 0.9045666525468371 0 0.14617343800780541 0.93808063414349496 0 0.1241151115713819 0.9045666525468371 0 0.10562472963403439 0.87143394428979881 0 0.14474682429600511 0.85524784522713515 0 0.083411279318375747 0.91030024466934134 0 0.1241151115713819 0.9045666525468371 0 0.10562472963403439 0.87143394428979881 0 0.10562472963403439 0.87143394428979881 0 0.1074251789111534 0.83564394292147814 0 0.14474682429600511 0.85524784522713515 0 0.1074251789111534 0.83564394292147814 0 0.065374659239661639 0.8551091961254178 0 0.083105206071452636 0.79992298667296435 0 0.10562472963403439 0.87143394428979881 0 0.1074251789111534 0.83564394292147814 0 0.065374659239661639 0.8551091961254178 0 0.065374659239661639 0.8551091961254178 0 0 0.84999999999965292 0 0.038512288486097702 0.8155852717111195 0 0.0443105827531413 0.89858748162559932 0 0.065374659239661639 0.8551091961254178 0 0 0.84999999999965292 0 0 0.84999999999965292 0 0.038512288486097702 0.8155852717111195 0 0 0.79999999999999982 0 0.065374659239661639 0.8551091961254178 0 0.038512288486097702 0.8155852717111195 0 0.083105206071452636 0.79992298667296435 0 0.038512288486097702 0.8155852717111195 0 0.04408157711937423 0.7728941757575627 0 0.083105206071452636 0.79992298667296435 0 0.038512288486097702 0.8155852717111195 0 0 0.79999999999999982 0 0.04408157711937423 0.7728941757575627 0 0 0.79999999999999982 0 0 0.75000000000034661 0 0.04408157711937423 0.7728941757575627 0 0.049706944316475897 0.72477277076253799 0 0.04408157711937423 0.7728941757575627 0 0.090953281884486245 0.7564451946902494 0 0.04408157711937423 0.7728941757575627 0 0.090953281884486245 0.7564451946902494 0 0.083105206071452636 0.79992298667296435 0 0.1074251789111534 0.83564394292147814 0 0.083105206071452636 0.79992298667296435 0 0.1382744753146134 0.79650574229207483 0 0.090953281884486245 0.7564451946902494 0 0.083105206071452636 0.79992298667296435 0 0.1382744753146134 0.79650574229207483 0 0.090953281884486245 0.7564451946902494 0 0.14335651144331049 0.75565258250209677 0 0.1382744753146134 0.79650574229207483 0 0.14335651144331049 0.75565258250209677 0 0.1382744753146134 0.79650574229207483 0 0.18269480424590959 0.75905448272264375 0 0.1382744753146134 0.79650574229207483 0 0.18269480424590959 0.75905448272264375 0 0.17777405986036951 0.81832336108265358 0 0.2248999640082178 0.72584299459689172 0 0.18269480424590959 0.75905448272264375 0 0.22556077506376701 0.77837424984191617 0 0.22556077506376701 0.77837424984191617 0 0.21858834311891909 0.81980263716112767 0 0.26104540868854792 0.81401944968719064 0 0.22556077506376701 0.77837424984191617 0 0.21858834311891909 0.81980263716112767 0 0.17777405986036951 0.81832336108265358 0 0.18269480424590959 0.75905448272264375 0 0.22556077506376701 0.77837424984191617 0 0.17777405986036951 0.81832336108265358 0 0.21858834311891909 0.81980263716112767 0 0.19741632902693801 0.86755867406447229 0 0.17777405986036951 0.81832336108265358 0 0.21858834311891909 0.81980263716112767 0 0.2401283238295133 0.85648409884788523 0 0.26104540868854792 0.81401944968719064 0 0.21858834311891909 0.81980263716112767 0 0.2401283238295133 0.85648409884788523 0 0.19741632902693801 0.86755867406447229 0 0.19741632902693801 0.86755867406447229 0 0.17777405986036951 0.81832336108265358 0 0.14474682429600511 0.85524784522713515 0 0.19741632902693801 0.86755867406447229 0 0.14474682429600511 0.85524784522713515 0 0.16206583317966519 0.89685560785156404 0 0.1382744753146134 0.79650574229207483 0 0.17777405986036951 0.81832336108265358 0 0.14474682429600511 0.85524784522713515 0 0.1074251789111534 0.83564394292147814 0 0.1382744753146134 0.79650574229207483 0 0.14474682429600511 0.85524784522713515 0 0.1241151115713819 0.9045666525468371 0 0.14474682429600511 0.85524784522713515 0 0.16206583317966519 0.89685560785156404 0 0.1241151115713819 0.9045666525468371 0 0.16206583317966519 0.89685560785156404 0 0.14617343800780541 0.93808063414349496 0 0.16206583317966519 0.89685560785156404 0 0.19901705110390991 0.9175543425573498 0 0.14617343800780541 0.93808063414349496 0 0.19741632902693801 0.86755867406447229 0 0.16206583317966519 0.89685560785156404 0 0.19901705110390991 0.9175543425573498 0 0.19741632902693801 0.86755867406447229 0 0.24536017905392571 0.90704567837671446 0 0.19901705110390991 0.9175543425573498 0 0.2401283238295133 0.85648409884788523 0 0.19741632902693801 0.86755867406447229 0 0.24536017905392571 0.90704567837671446 0 0.24536017905392571 0.90704567837671446 0 0.19901705110390991 0.9175543425573498 0 0.22850979588452081 0.95594428570238643 0 0.19901705110390991 0.9175543425573498 0 0.22850979588452081 0.95594428570238643 0 0.18474005699953849 0.96231585248064622 0 0.24536017905392571 0.90704567837671446 0 0.22850979588452081 0.95594428570238643 0 0.27609987656793722 0.94991445621608572 0 0.22850979588452081 0.95594428570238643 0 0.20000000000083221 1 0 0.25000000000104028 1 0 0.22850979588452081 0.95594428570238643 0 0.20000000000083221 1 0 0.18474005699953849 0.96231585248064622 0 0.20000000000083221 1 0 0.18474005699953849 0.96231585248064622 0 0.15000000000062411 1 0 0.19901705110390991 0.9175543425573498 0 0.18474005699953849 0.96231585248064622 0 0.14617343800780541 0.93808063414349496 0 0.18474005699953849 0.96231585248064622 0 0.14617343800780541 0.93808063414349496 0 0.15000000000062411 1 0 0.10266856499240549 0.95548163909968886 0 0.14617343800780541 0.93808063414349496 0 0.15000000000062411 1 0 0.35000000000145642 1 0 0.36184234618600131 0.96443954459096326 0 0.32544832635163229 0.95485394099568932 0 0.35000000000145642 1 0 0.36184234618600131 0.96443954459096326 0 0.40000000000166441 1 0 0.36184234618600131 0.96443954459096326 0 0.32544832635163229 0.95485394099568932 0 0.35752321586431363 0.9185439911803448 0 0.36184234618600131 0.96443954459096326 0 0.35752321586431363 0.9185439911803448 0 0.39641108128798319 0.94356127926187128 0 0.35000000000145642 1 0 0.32544832635163229 0.95485394099568932 0 0.30000000000124832 1 0 0.30000000000124832 1 0 0.25000000000104028 1 0 0.27609987656793722 0.94991445621608572 0 0.22850979588452081 0.95594428570238643 0 0.25000000000104028 1 0 0.27609987656793722 0.94991445621608572 0 0.32544832635163229 0.95485394099568932 0 0.30000000000124832 1 0 0.27609987656793722 0.94991445621608572 0 0.32544832635163229 0.95485394099568932 0 0.27609987656793722 0.94991445621608572 0 0.30864387279288652 0.89906554525974958 0 0.24536017905392571 0.90704567837671446 0 0.27270076654418179 0.87751467830216623 0 0.30864387279288652 0.89906554525974958 0 0.24536017905392571 0.90704567837671446 0 0.27609987656793722 0.94991445621608572 0 0.30864387279288652 0.89906554525974958 0 0.2401283238295133 0.85648409884788523 0 0.24536017905392571 0.90704567837671446 0 0.27270076654418179 0.87751467830216623 0 0.30864387279288652 0.89906554525974958 0 0.35752321586431363 0.9185439911803448 0 0.35864759629805099 0.87963482415279515 0 0.32544832635163229 0.95485394099568932 0 0.30864387279288652 0.89906554525974958 0 0.35752321586431363 0.9185439911803448 0 0.35752321586431363 0.9185439911803448 0 0.35864759629805099 0.87963482415279515 0 0.39767323751400468 0.89584229130535065 0 0.35864759629805099 0.87963482415279515 0 0.33403534827021109 0.84402799729020661 0 0.39536230704883951 0.84069429572832477 0 0.33403534827021109 0.84402799729020661 0 0.35642984951668422 0.80994399665655703 0 0.39536230704883951 0.84069429572832477 0 0.33403534827021109 0.84402799729020661 0 0.30857225866488791 0.81101973481716805 0 0.35642984951668422 0.80994399665655703 0 0.30864387279288652 0.89906554525974958 0 0.35864759629805099 0.87963482415279515 0 0.33403534827021109 0.84402799729020661 0 0.30864387279288652 0.89906554525974958 0 0.33403534827021109 0.84402799729020661 0 0.29209212897034281 0.84715728365233667 0 0.27270076654418179 0.87751467830216623 0 0.30864387279288652 0.89906554525974958 0 0.29209212897034281 0.84715728365233667 0 0.2401283238295133 0.85648409884788523 0 0.27270076654418179 0.87751467830216623 0 0.29209212897034281 0.84715728365233667 0 0.2401283238295133 0.85648409884788523 0 0.29209212897034281 0.84715728365233667 0 0.26104540868854792 0.81401944968719064 0 0.29209212897034281 0.84715728365233667 0 0.26104540868854792 0.81401944968719064 0 0.30857225866488791 0.81101973481716805 0 0.33403534827021109 0.84402799729020661 0 0.29209212897034281 0.84715728365233667 0 0.30857225866488791 0.81101973481716805 0 0.26104540868854792 0.81401944968719064 0 0.30857225866488791 0.81101973481716805 0 0.2792923945214143 0.77665808831789485 0 0.30857225866488791 0.81101973481716805 0 0.2792923945214143 0.77665808831789485 0 0.33123028043633618 0.77629643437932982 0 0.22556077506376701 0.77837424984191617 0 0.26104540868854792 0.81401944968719064 0 0.2792923945214143 0.77665808831789485 0 0.2792923945214143 0.77665808831789485 0 0.25676291524611189 0.7436741304886243 0 0.29904318922293632 0.74132814928635593 0 0.22556077506376701 0.77837424984191617 0 0.2792923945214143 0.77665808831789485 0 0.25676291524611189 0.7436741304886243 0 0.2792923945214143 0.77665808831789485 0 0.33123028043633618 0.77629643437932982 0 0.29904318922293632 0.74132814928635593 0 0.33123028043633618 0.77629643437932982 0 0.29904318922293632 0.74132814928635593 0 0.35415581127540569 0.73730480045900215 0 0.30857225866488791 0.81101973481716805 0 0.33123028043633618 0.77629643437932982 0 0.35642984951668422 0.80994399665655703 0 0.33123028043633618 0.77629643437932982 0 0.35642984951668422 0.80994399665655703 0 0.38586766253264881 0.78219501014812498 0 0.33123028043633618 0.77629643437932982 0 0.38586766253264881 0.78219501014812498 0 0.35415581127540569 0.73730480045900215 0 0.38586766253264881 0.78219501014812498 0 0.42676259796334498 0.76772545931379299 0 0.40326160981139969 0.73346192995102844 0 0.38586766253264881 0.78219501014812498 0 0.35415581127540569 0.73730480045900215 0 0.40326160981139969 0.73346192995102844 0 0.38586766253264881 0.78219501014812498 0 0.42609163930740518 0.80361684430568059 0 0.39536230704883951 0.84069429572832477 0 0.35642984951668422 0.80994399665655703 0 0.38586766253264881 0.78219501014812498 0 0.39536230704883951 0.84069429572832477 0 0.38586766253264881 0.78219501014812498 0 0.42609163930740518 0.80361684430568059 0 0.42676259796334498 0.76772545931379299 0 0.42676259796334498 0.76772545931379299 0 0.4656888918609538 0.78493261229743638 0 0.45582236402875981 0.73896743678908217 0 0.4656888918609538 0.78493261229743638 0 0.45582236402875981 0.73896743678908217 0 0.50945740445113552 0.75476055527778108 0 0.4656888918609538 0.78493261229743638 0 0.50731287292894423 0.78963574450233831 0 0.50945740445113552 0.75476055527778108 0 0.4656888918609538 0.78493261229743638 0 0.50627822638148745 0.8263979829520941 0 0.50731287292894423 0.78963574450233831 0 0.42609163930740518 0.80361684430568059 0 0.4656888918609538 0.78493261229743638 0 0.45677673713123867 0.84253684404072415 0 0.42609163930740518 0.80361684430568059 0 0.42676259796334498 0.76772545931379299 0 0.4656888918609538 0.78493261229743638 0 0.4656888918609538 0.78493261229743638 0 0.45677673713123867 0.84253684404072415 0 0.50627822638148745 0.8263979829520941 0 0.45677673713123867 0.84253684404072415 0 0.50202631463681879 0.87892870825713787 0 0.50627822638148745 0.8263979829520941 0 0.45677673713123867 0.84253684404072415 0 0.44003836461056539 0.88093474584252718 0 0.50202631463681879 0.87892870825713787 0 0.45677673713123867 0.84253684404072415 0 0.39536230704883951 0.84069429572832477 0 0.44003836461056539 0.88093474584252718 0 0.39536230704883951 0.84069429572832477 0 0.39767323751400468 0.89584229130535065 0 0.44003836461056539 0.88093474584252718 0 0.42609163930740518 0.80361684430568059 0 0.45677673713123867 0.84253684404072415 0 0.39536230704883951 0.84069429572832477 0 0.35864759629805099 0.87963482415279515 0 0.39536230704883951 0.84069429572832477 0 0.39767323751400468 0.89584229130535065 0 0.35752321586431363 0.9185439911803448 0 0.39767323751400468 0.89584229130535065 0 0.39641108128798319 0.94356127926187128 0 0.39767323751400468 0.89584229130535065 0 0.4367309254023824 0.92065556789053882 0 0.39641108128798319 0.94356127926187128 0 0.39767323751400468 0.89584229130535065 0 0.4367309254023824 0.92065556789053882 0 0.44003836461056539 0.88093474584252718 0 0.4367309254023824 0.92065556789053882 0 0.44003836461056539 0.88093474584252718 0 0.47401147028110507 0.91529957330468115 0 0.44003836461056539 0.88093474584252718 0 0.47401147028110507 0.91529957330468115 0 0.50202631463681879 0.87892870825713787 0 0.47401147028110507 0.91529957330468115 0 0.47135117303824892 0.95556877749289892 0 0.52122150208832174 0.94089974453840242 0 0.47401147028110507 0.91529957330468115 0 0.52122150208832174 0.94089974453840242 0 0.50202631463681879 0.87892870825713787 0 0.4367309254023824 0.92065556789053882 0 0.47401147028110507 0.91529957330468115 0 0.47135117303824892 0.95556877749289892 0 0.4367309254023824 0.92065556789053882 0 0.47135117303824892 0.95556877749289892 0 0.4308986359464303 0.96395712492906194 0 0.47135117303824892 0.95556877749289892 0 0.50000000000205869 1 0 0.52122150208832174 0.94089974453840242 0 0.47135117303824892 0.95556877749289892 0 0.45000000000187229 1 0 0.50000000000205869 1 0 0.47135117303824892 0.95556877749289892 0 0.45000000000187229 1 0 0.4308986359464303 0.96395712492906194 0 0.45000000000187229 1 0 0.4308986359464303 0.96395712492906194 0 0.40000000000166441 1 0 0.4308986359464303 0.96395712492906194 0 0.39641108128798319 0.94356127926187128 0 0.40000000000166441 1 0 0.4367309254023824 0.92065556789053882 0 0.4308986359464303 0.96395712492906194 0 0.39641108128798319 0.94356127926187128 0 0.36184234618600131 0.96443954459096326 0 0.39641108128798319 0.94356127926187128 0 0.40000000000166441 1 0 0.33122374654748771 0.57588941099433744 0 0.31502927232353312 0.6134992213375432 0 0.35765792684946668 0.6000687869219653 0 0.31502927232353312 0.6134992213375432 0 0.35765792684946668 0.6000687869219653 0 0.35864735590330371 0.63903383440414463 0 0.35765792684946668 0.6000687869219653 0 0.35864735590330371 0.63903383440414463 0 0.39743091024207589 0.6239520004230239 0 0.33122374654748771 0.57588941099433744 0 0.35765792684946668 0.6000687869219653 0 0.37272913873093971 0.56192925302619479 0 0.37272913873093971 0.56192925302619479 0 0.33190227185843768 0.52715113583864037 0 0.38244435121258652 0.51653317813019495 0 0.33122374654748771 0.57588941099433744 0 0.37272913873093971 0.56192925302619479 0 0.33190227185843768 0.52715113583864037 0 0.35024835142131061 0.48654922671676981 0 0.33190227185843768 0.52715113583864037 0 0.38244435121258652 0.51653317813019495 0 0.33122374654748771 0.57588941099433744 0 0.33190227185843768 0.52715113583864037 0 0.29110487519241501 0.56588143995431495 0 0.33190227185843768 0.52715113583864037 0 0.28307294598219601 0.50789252727458634 0 0.29110487519241501 0.56588143995431495 0 0.31068898841644388 0.47541502461811092 0 0.33190227185843768 0.52715113583864037 0 0.28307294598219601 0.50789252727458634 0 0.23975172658309729 0.49475499200540818 0 0.28307294598219601 0.50789252727458634 0 0.25115337790845271 0.54719303014923271 0 0.28307294598219601 0.50789252727458634 0 0.25115337790845271 0.54719303014923271 0 0.29110487519241501 0.56588143995431495 0 0.25115337790845271 0.54719303014923271 0 0.29110487519241501 0.56588143995431495 0 0.26573297623774761 0.59828298563722948 0 0.33122374654748771 0.57588941099433744 0 0.31502927232353312 0.6134992213375432 0 0.29110487519241501 0.56588143995431495 0 0.31502927232353312 0.6134992213375432 0 0.29110487519241501 0.56588143995431495 0 0.26573297623774761 0.59828298563722948 0 0.31502927232353312 0.6134992213375432 0 0.26573297623774761 0.59828298563722948 0 0.27820712747429932 0.65530134213254643 0 0.2459498854893499 0.63248470766216769 0 0.26573297623774761 0.59828298563722948 0 0.27820712747429932 0.65530134213254643 0 0.2236846579037573 0.67380363126050236 0 0.27820712747429932 0.65530134213254643 0 0.26439878998046262 0.7048065392091396 0 0.27820712747429932 0.65530134213254643 0 0.31378396441836959 0.70157213313026345 0 0.32263089806001177 0.66003674931826484 0 0.27820712747429932 0.65530134213254643 0 0.26439878998046262 0.7048065392091396 0 0.31378396441836959 0.70157213313026345 0 0.31502927232353312 0.6134992213375432 0 0.27820712747429932 0.65530134213254643 0 0.32263089806001177 0.66003674931826484 0 0.25676291524611189 0.7436741304886243 0 0.26439878998046262 0.7048065392091396 0 0.29904318922293632 0.74132814928635593 0 0.26439878998046262 0.7048065392091396 0 0.29904318922293632 0.74132814928635593 0 0.31378396441836959 0.70157213313026345 0 0.29904318922293632 0.74132814928635593 0 0.31378396441836959 0.70157213313026345 0 0.35415581127540569 0.73730480045900215 0 0.31378396441836959 0.70157213313026345 0 0.36622285152418499 0.69092437780804039 0 0.35415581127540569 0.73730480045900215 0 0.36622285152418499 0.69092437780804039 0 0.35415581127540569 0.73730480045900215 0 0.40326160981139969 0.73346192995102844 0 0.31502927232353312 0.6134992213375432 0 0.32263089806001177 0.66003674931826484 0 0.35864735590330371 0.63903383440414463 0 0.31378396441836959 0.70157213313026345 0 0.36622285152418499 0.69092437780804039 0 0.32263089806001177 0.66003674931826484 0 0.36622285152418499 0.69092437780804039 0 0.32263089806001177 0.66003674931826484 0 0.35864735590330371 0.63903383440414463 0 0.36622285152418499 0.69092437780804039 0 0.35864735590330371 0.63903383440414463 0 0.3977710372045391 0.65868194622830212 0 0.35864735590330371 0.63903383440414463 0 0.3977710372045391 0.65868194622830212 0 0.39743091024207589 0.6239520004230239 0 0.36622285152418499 0.69092437780804039 0 0.3977710372045391 0.65868194622830212 0 0.43323420005758778 0.6913544522562407 0 0.3977710372045391 0.65868194622830212 0 0.43323420005758778 0.6913544522562407 0 0.43846182030517877 0.64845797726506715 0 0.43846182030517877 0.64845797726506715 0 0.43545892161006339 0.61093128915313821 0 0.39743091024207589 0.6239520004230239 0 0.3977710372045391 0.65868194622830212 0 0.43846182030517877 0.64845797726506715 0 0.39743091024207589 0.6239520004230239 0 0.36622285152418499 0.69092437780804039 0 0.40326160981139969 0.73346192995102844 0 0.43323420005758778 0.6913544522562407 0 0.40326160981139969 0.73346192995102844 0 0.43323420005758778 0.6913544522562407 0 0.45582236402875981 0.73896743678908217 0 0.42676259796334498 0.76772545931379299 0 0.40326160981139969 0.73346192995102844 0 0.45582236402875981 0.73896743678908217 0 0.43323420005758778 0.6913544522562407 0 0.45582236402875981 0.73896743678908217 0 0.5 0.69999999999999996 0 0.45582236402875981 0.73896743678908217 0 0.5 0.69999999999999996 0 0.50945740445113552 0.75476055527778108 0 0.43323420005758778 0.6913544522562407 0 0.47913475093885149 0.66010775372412711 0 0.5 0.69999999999999996 0 0.43846182030517877 0.64845797726506715 0 0.47913475093885149 0.66010775372412711 0 0.47095389620662098 0.61892551373708504 0 0.43846182030517877 0.64845797726506715 0 0.47095389620662098 0.61892551373708504 0 0.43545892161006339 0.61093128915313821 0 0.43323420005758778 0.6913544522562407 0 0.43846182030517877 0.64845797726506715 0 0.47913475093885149 0.66010775372412711 0 0.47913475093885149 0.66010775372412711 0 0.47095389620662098 0.61892551373708504 0 0.50715858906372158 0.63295939104129484 0 0.47095389620662098 0.61892551373708504 0 0.5166924242153631 0.59825134841919447 0 0.50715858906372158 0.63295939104129484 0 0.47095389620662098 0.61892551373708504 0 0.46666084890304671 0.57634471035397938 0 0.5166924242153631 0.59825134841919447 0 0.47095389620662098 0.61892551373708504 0 0.46666084890304671 0.57634471035397938 0 0.43545892161006339 0.61093128915313821 0 0.43545892161006339 0.61093128915313821 0 0.4089290844030305 0.58728915500154233 0 0.39743091024207589 0.6239520004230239 0 0.46666084890304671 0.57634471035397938 0 0.43545892161006339 0.61093128915313821 0 0.4089290844030305 0.58728915500154233 0 0.46666084890304671 0.57634471035397938 0 0.4089290844030305 0.58728915500154233 0 0.42644501560315817 0.54603747078095544 0 0.37272913873093971 0.56192925302619479 0 0.4089290844030305 0.58728915500154233 0 0.42644501560315817 0.54603747078095544 0 0.35765792684946668 0.6000687869219653 0 0.37272913873093971 0.56192925302619479 0 0.4089290844030305 0.58728915500154233 0 0.35765792684946668 0.6000687869219653 0 0.4089290844030305 0.58728915500154233 0 0.39743091024207589 0.6239520004230239 0 0.37272913873093971 0.56192925302619479 0 0.38244435121258652 0.51653317813019495 0 0.42644501560315817 0.54603747078095544 0 0.43507373378304309 0.49699695397193322 0 0.38244435121258652 0.51653317813019495 0 0.42644501560315817 0.54603747078095544 0 0.46666084890304671 0.57634471035397938 0 0.47793794143994173 0.52940715638744962 0 0.53245488764484505 0.55078124999999989 0 0.43507373378304309 0.49699695397193322 0 0.49102375406324739 0.49123754822244059 0 0.47793794143994173 0.52940715638744962 0 0.43507373378304309 0.49699695397193322 0 0.42644501560315817 0.54603747078095544 0 0.47793794143994173 0.52940715638744962 0 0.46666084890304671 0.57634471035397938 0 0.42644501560315817 0.54603747078095544 0 0.47793794143994173 0.52940715638744962 0 0.49102375406324739 0.49123754822244059 0 0.47793794143994173 0.52940715638744962 0 0.53330375813596242 0.50827942741749099 0 0.47793794143994173 0.52940715638744962 0 0.53245488764484505 0.55078124999999989 0 0.53330375813596242 0.50827942741749099 0 0.53245488764484505 0.55078124999999989 0 0.53330375813596242 0.50827942741749099 0 0.57435499076887508 0.54267261987897775 0 0.53245488764484505 0.55078124999999989 0 0.57435499076887508 0.54267261987897775 0 0.57412547362576272 0.58273804879550706 0 0.53330375813596242 0.50827942741749099 0 0.57611405284611883 0.50165903596042916 0 0.57435499076887508 0.54267261987897775 0 0.57611405284611883 0.50165903596042916 0 0.57435499076887508 0.54267261987897775 0 0.62042975506801734 0.54295974692364424 0 0.57435499076887508 0.54267261987897775 0 0.62042975506801734 0.54295974692364424 0 0.57412547362576272 0.58273804879550706 0 0.57611405284611883 0.50165903596042916 0 0.62042975506801734 0.54295974692364424 0 0.61547661924074692 0.48539576058873962 0 0.5991018319127801 0.62925360607495295 0 0.6405463747586706 0.63290524857395714 0 0.63065402604362242 0.59661356661633302 0 0.57412547362576272 0.58273804879550706 0 0.5991018319127801 0.62925360607495295 0 0.63065402604362242 0.59661356661633302 0 0.62042975506801734 0.54295974692364424 0 0.57412547362576272 0.58273804879550706 0 0.63065402604362242 0.59661356661633302 0 0.57412547362576272 0.58273804879550706 0 0.5498280205245758 0.6290146943450976 0 0.5991018319127801 0.62925360607495295 0 0.46666084890304671 0.57634471035397938 0 0.53245488764484505 0.55078124999999989 0 0.5166924242153631 0.59825134841919447 0 0.57412547362576272 0.58273804879550706 0 0.5166924242153631 0.59825134841919447 0 0.5498280205245758 0.6290146943450976 0 0.53245488764484505 0.55078124999999989 0 0.57412547362576272 0.58273804879550706 0 0.5166924242153631 0.59825134841919447 0 0.5166924242153631 0.59825134841919447 0 0.50715858906372158 0.63295939104129484 0 0.5498280205245758 0.6290146943450976 0 0.47913475093885149 0.66010775372412711 0 0.50715858906372158 0.63295939104129484 0 0.52584555706968406 0.66664215091846768 0 0.50715858906372158 0.63295939104129484 0 0.52584555706968406 0.66664215091846768 0 0.5498280205245758 0.6290146943450976 0 0.47913475093885149 0.66010775372412711 0 0.52584555706968406 0.66664215091846768 0 0.5 0.69999999999999996 0 0.52584555706968406 0.66664215091846768 0 0.54999999999999993 0.69999999999999996 0 0.57484956128872922 0.66573805030881994 0 0.52584555706968406 0.66664215091846768 0 0.5498280205245758 0.6290146943450976 0 0.57484956128872922 0.66573805030881994 0 0.5 0.69999999999999996 0 0.55363780716230748 0.74348740161571747 0 0.50945740445113552 0.75476055527778108 0 0.52584555706968406 0.66664215091846768 0 0.5 0.69999999999999996 0 0.54999999999999993 0.69999999999999996 0 0.5 0.69999999999999996 0 0.54999999999999993 0.69999999999999996 0 0.5 0.69999999999999996 0 0.54999999999999993 0.69999999999999996 0 0.55363780716230748 0.74348740161571747 0 0.55363780716230748 0.74348740161571747 0 0.59999999999999976 0.69999999999999996 0 0.59636844454254345 0.75937156204589151 0 0.54999999999999993 0.69999999999999996 0 0.59999999999999976 0.69999999999999996 0 0.54999999999999993 0.69999999999999996 0 0.59999999999999976 0.69999999999999996 0 0.57484956128872922 0.66573805030881994 0 0.54999999999999993 0.69999999999999996 0 0.55363780716230748 0.74348740161571747 0 0.59999999999999976 0.69999999999999996 0 0.59999999999999976 0.69999999999999996 0 0.6499999999999998 0.69999999999999996 0 0.59999999999999976 0.69999999999999996 0 0.62460753523532009 0.66851202781000296 0 0.6499999999999998 0.69999999999999996 0 0.59999999999999976 0.69999999999999996 0 0.63221990677827677 0.73442891067859706 0 0.59636844454254345 0.75937156204589151 0 0.5498280205245758 0.6290146943450976 0 0.57484956128872922 0.66573805030881994 0 0.5991018319127801 0.62925360607495295 0 0.59999999999999976 0.69999999999999996 0 0.57484956128872922 0.66573805030881994 0 0.62460753523532009 0.66851202781000296 0 0.57484956128872922 0.66573805030881994 0 0.62460753523532009 0.66851202781000296 0 0.5991018319127801 0.62925360607495295 0 0.62460753523532009 0.66851202781000296 0 0.5991018319127801 0.62925360607495295 0 0.6405463747586706 0.63290524857395714 0 0.62460753523532009 0.66851202781000296 0 0.6405463747586706 0.63290524857395714 0 0.675261390228442 0.65996937624687813 0 0.62460753523532009 0.66851202781000296 0 0.675261390228442 0.65996937624687813 0 0.6499999999999998 0.69999999999999996 0 0.675261390228442 0.65996937624687813 0 0.6499999999999998 0.69999999999999996 0 0.69999999999999984 0.69999999999999996 0 0.6405463747586706 0.63290524857395714 0 0.675261390228442 0.65996937624687813 0 0.67529834988829951 0.61613270668143583 0 0.63221990677827677 0.73442891067859706 0 0.66427993341343905 0.73232764502436276 0 0.64753070846764316 0.77332939069435502 0 0.63221990677827677 0.73442891067859706 0 0.6499999999999998 0.69999999999999996 0 0.66427993341343905 0.73232764502436276 0 0.59999999999999976 0.69999999999999996 0 0.63221990677827677 0.73442891067859706 0 0.6499999999999998 0.69999999999999996 0 0.6499999999999998 0.69999999999999996 0 0.69999999999999984 0.69999999999999996 0 0.6499999999999998 0.69999999999999996 0 0.66427993341343905 0.73232764502436276 0 0.69999999999999984 0.69999999999999996 0 0.66427993341343905 0.73232764502436276 0 0.69999999999999984 0.69999999999999996 0 0.6916490518212759 0.75387992374886192 0 0.69999999999999984 0.69999999999999996 0 0.72501250972655151 0.74067302935308721 0 0.6916490518212759 0.75387992374886192 0 0.69999999999999984 0.69999999999999996 0 0.74999999999999989 0.69999999999999996 0 0.72501250972655151 0.74067302935308721 0 0.69999999999999984 0.69999999999999996 0 0.74999999999999989 0.69999999999999996 0 0.72500000000000064 0.67022701834392062 0 0.69999999999999984 0.69999999999999996 0 0.74999999999999989 0.69999999999999996 0 0.74999999999999989 0.69999999999999996 0 0.72501250972655151 0.74067302935308721 0 0.75841349681148107 0.75422312624214749 0 0.675261390228442 0.65996937624687813 0 0.71406021706547751 0.63292083137662503 0 0.72500000000000064 0.67022701834392062 0 0.675261390228442 0.65996937624687813 0 0.71406021706547751 0.63292083137662503 0 0.67529834988829951 0.61613270668143583 0 0.675261390228442 0.65996937624687813 0 0.69999999999999984 0.69999999999999996 0 0.72500000000000064 0.67022701834392062 0 0.71406021706547751 0.63292083137662503 0 0.72500000000000064 0.67022701834392062 0 0.74994237037456724 0.62775548192980357 0 0.72500000000000064 0.67022701834392062 0 0.74994237037456724 0.62775548192980357 0 0.7750489929959945 0.66593931409600093 0 0.71406021706547751 0.63292083137662503 0 0.74994237037456724 0.62775548192980357 0 0.71809016091162536 0.58185040402320831 0 0.74994237037456724 0.62775548192980357 0 0.71809016091162536 0.58185040402320831 0 0.77293540622714185 0.59448302402785813 0 0.71406021706547751 0.63292083137662503 0 0.71809016091162536 0.58185040402320831 0 0.67529834988829951 0.61613270668143583 0 0.71809016091162536 0.58185040402320831 0 0.67569444444444449 0.53500863336860327 0 0.67323294229744413 0.57556450033612505 0 0.71809016091162536 0.58185040402320831 0 0.67529834988829951 0.61613270668143583 0 0.67323294229744413 0.57556450033612505 0 0.71809016091162536 0.58185040402320831 0 0.7152569930854884 0.5237994455134295 0 0.77151014687832564 0.54436834383023036 0 0.7152569930854884 0.5237994455134295 0 0.77151014687832564 0.54436834383023036 0 0.73947346780852752 0.49062440112282169 0 0.7152569930854884 0.5237994455134295 0 0.67569444444444449 0.53500863336860327 0 0.69385896817107129 0.48377516041410151 0 0.71809016091162536 0.58185040402320831 0 0.7152569930854884 0.5237994455134295 0 0.67569444444444449 0.53500863336860327 0 0.62042975506801734 0.54295974692364424 0 0.67569444444444449 0.53500863336860327 0 0.67323294229744413 0.57556450033612505 0 0.67569444444444449 0.53500863336860327 0 0.6541250972820879 0.49999999999999989 0 0.69385896817107129 0.48377516041410151 0 0.62042975506801734 0.54295974692364424 0 0.67569444444444449 0.53500863336860327 0 0.6541250972820879 0.49999999999999989 0 0.62042975506801734 0.54295974692364424 0 0.61547661924074692 0.48539576058873962 0 0.6541250972820879 0.49999999999999989 0 0.62042975506801734 0.54295974692364424 0 0.63065402604362242 0.59661356661633302 0 0.67323294229744413 0.57556450033612505 0 0.6405463747586706 0.63290524857395714 0 0.63065402604362242 0.59661356661633302 0 0.67529834988829951 0.61613270668143583 0 0.63065402604362242 0.59661356661633302 0 0.67529834988829951 0.61613270668143583 0 0.67323294229744413 0.57556450033612505 0 0.60000000000138687 1 0 0.62065498684670595 0.95224934003983619 0 0.57382506491224949 0.9629411906298494 0 0.60000000000138687 1 0 0.62065498684670595 0.95224934003983619 0 0.65000000000104008 1 0 0.62065498684670595 0.95224934003983619 0 0.57382506491224949 0.9629411906298494 0 0.57724883562309992 0.92155686857100794 0 0.60000000000138687 1 0 0.57382506491224949 0.9629411906298494 0 0.55000000000173355 1 0 0.55000000000173355 1 0 0.50000000000205869 1 0 0.52122150208832174 0.94089974453840242 0 0.57382506491224949 0.9629411906298494 0 0.52122150208832174 0.94089974453840242 0 0.57724883562309992 0.92155686857100794 0 0.57382506491224949 0.9629411906298494 0 0.55000000000173355 1 0 0.52122150208832174 0.94089974453840242 0 0.52122150208832174 0.94089974453840242 0 0.54783390826260769 0.89287767010860219 0 0.57724883562309992 0.92155686857100794 0 0.52122150208832174 0.94089974453840242 0 0.50202631463681879 0.87892870825713787 0 0.54783390826260769 0.89287767010860219 0 0.54783390826260769 0.89287767010860219 0 0.5832743223239254 0.88483152652961872 0 0.55899371797446828 0.85003102233514438 0 0.54783390826260769 0.89287767010860219 0 0.5832743223239254 0.88483152652961872 0 0.57724883562309992 0.92155686857100794 0 0.5832743223239254 0.88483152652961872 0 0.57724883562309992 0.92155686857100794 0 0.61885627562261258 0.90282959257498208 0 0.62065498684670595 0.95224934003983619 0 0.57724883562309992 0.92155686857100794 0 0.61885627562261258 0.90282959257498208 0 0.5832743223239254 0.88483152652961872 0 0.61885627562261258 0.90282959257498208 0 0.61343887413683884 0.856862479058357 0 0.61343887413683884 0.856862479058357 0 0.60294066490120068 0.80851322453934582 0 0.65005442820240822 0.82644988530054031 0 0.61343887413683884 0.856862479058357 0 0.55899371797446828 0.85003102233514438 0 0.60294066490120068 0.80851322453934582 0 0.55899371797446828 0.85003102233514438 0 0.54782696902220018 0.79245182748204157 0 0.60294066490120068 0.80851322453934582 0 0.5832743223239254 0.88483152652961872 0 0.61343887413683884 0.856862479058357 0 0.55899371797446828 0.85003102233514438 0 0.50202631463681879 0.87892870825713787 0 0.54783390826260769 0.89287767010860219 0 0.55899371797446828 0.85003102233514438 0 0.50202631463681879 0.87892870825713787 0 0.55899371797446828 0.85003102233514438 0 0.50627822638148745 0.8263979829520941 0 0.55899371797446828 0.85003102233514438 0 0.50627822638148745 0.8263979829520941 0 0.54782696902220018 0.79245182748204157 0 0.50627822638148745 0.8263979829520941 0 0.54782696902220018 0.79245182748204157 0 0.50731287292894423 0.78963574450233831 0 0.54782696902220018 0.79245182748204157 0 0.50731287292894423 0.78963574450233831 0 0.50945740445113552 0.75476055527778108 0 0.55363780716230748 0.74348740161571747 0 0.54782696902220018 0.79245182748204157 0 0.50945740445113552 0.75476055527778108 0 0.55363780716230748 0.74348740161571747 0 0.54782696902220018 0.79245182748204157 0 0.59636844454254345 0.75937156204589151 0 0.54782696902220018 0.79245182748204157 0 0.60294066490120068 0.80851322453934582 0 0.59636844454254345 0.75937156204589151 0 0.60294066490120068 0.80851322453934582 0 0.59636844454254345 0.75937156204589151 0 0.64753070846764316 0.77332939069435502 0 0.63221990677827677 0.73442891067859706 0 0.59636844454254345 0.75937156204589151 0 0.64753070846764316 0.77332939069435502 0 0.60294066490120068 0.80851322453934582 0 0.64753070846764316 0.77332939069435502 0 0.65005442820240822 0.82644988530054031 0 0.64753070846764316 0.77332939069435502 0 0.68024162096458085 0.79868546898116533 0 0.65005442820240822 0.82644988530054031 0 0.64753070846764316 0.77332939069435502 0 0.68024162096458085 0.79868546898116533 0 0.6916490518212759 0.75387992374886192 0 0.66427993341343905 0.73232764502436276 0 0.64753070846764316 0.77332939069435502 0 0.6916490518212759 0.75387992374886192 0 0.72501250972655151 0.74067302935308721 0 0.6916490518212759 0.75387992374886192 0 0.72500000000000064 0.7952620967744265 0 0.72501250972655151 0.74067302935308721 0 0.72500000000000064 0.7952620967744265 0 0.75841349681148107 0.75422312624214749 0 0.68024162096458085 0.79868546898116533 0 0.6916490518212759 0.75387992374886192 0 0.72500000000000064 0.7952620967744265 0 0.68024162096458085 0.79868546898116533 0 0.72500000000000064 0.7952620967744265 0 0.68697391633157634 0.84450604838764298 0 0.72500000000000064 0.7952620967744265 0 0.72863726579783861 0.85390518901155588 0 0.68697391633157634 0.84450604838764298 0 0.72500000000000064 0.7952620967744265 0 0.72863726579783861 0.85390518901155588 0 0.76901770135486491 0.84293557325473656 0 0.72863726579783861 0.85390518901155588 0 0.68697391633157634 0.84450604838764298 0 0.7250000000005199 0.89375000000045834 0 0.68697391633157634 0.84450604838764298 0 0.66412543161245952 0.88015090885499059 0 0.7250000000005199 0.89375000000045834 0 0.68697391633157634 0.84450604838764298 0 0.65005442820240822 0.82644988530054031 0 0.66412543161245952 0.88015090885499059 0 0.68024162096458085 0.79868546898116533 0 0.68697391633157634 0.84450604838764298 0 0.65005442820240822 0.82644988530054031 0 0.61343887413683884 0.856862479058357 0 0.65005442820240822 0.82644988530054031 0 0.66412543161245952 0.88015090885499059 0 0.61885627562261258 0.90282959257498208 0 0.61343887413683884 0.856862479058357 0 0.66412543161245952 0.88015090885499059 0 0.61885627562261258 0.90282959257498208 0 0.65507451745379841 0.92229208810758578 0 0.66412543161245952 0.88015090885499059 0 0.62065498684670595 0.95224934003983619 0 0.61885627562261258 0.90282959257498208 0 0.65507451745379841 0.92229208810758578 0 0.65507451745379841 0.92229208810758578 0 0.68987011941058407 0.92105047536677087 0 0.68015064798562208 0.95924320340003011 0 0.65507451745379841 0.92229208810758578 0 0.66412543161245952 0.88015090885499059 0 0.68987011941058407 0.92105047536677087 0 0.66412543161245952 0.88015090885499059 0 0.7250000000005199 0.89375000000045834 0 0.68987011941058407 0.92105047536677087 0 0.72863726579783861 0.85390518901155588 0 0.7250000000005199 0.89375000000045834 0 0.76891166905518427 0.88835469571185499 0 0.7250000000005199 0.89375000000045834 0 0.7250000000005199 0.94981617647078953 0 0.75729602384198635 0.92353652857884294 0 0.7250000000005199 0.89375000000045834 0 0.68987011941058407 0.92105047536677087 0 0.7250000000005199 0.94981617647078953 0 0.68987011941058407 0.92105047536677087 0 0.7250000000005199 0.94981617647078953 0 0.68015064798562208 0.95924320340003011 0 0.7250000000005199 0.94981617647078953 0 0.7000000000006934 1 0 0.75000000000034661 1 0 0.7250000000005199 0.94981617647078953 0 0.75000000000034661 1 0 0.770759834363826 0.95919399014344442 0 0.7250000000005199 0.94981617647078953 0 0.7000000000006934 1 0 0.68015064798562208 0.95924320340003011 0 0.7000000000006934 1 0 0.68015064798562208 0.95924320340003011 0 0.65000000000104008 1 0 0.62065498684670595 0.95224934003983619 0 0.65507451745379841 0.92229208810758578 0 0.68015064798562208 0.95924320340003011 0 0.62065498684670595 0.95224934003983619 0 0.68015064798562208 0.95924320340003011 0 0.65000000000104008 1 0 0.84999999999965292 1 0 0.85170973911348691 0.93569607295217616 0 0.89898474358632463 0.95391965591118966 0 0.84999999999965292 1 0 0.81486180804382891 0.96321394949790495 0 0.85170973911348691 0.93569607295217616 0 0.81486180804382891 0.96321394949790495 0 0.79680861578988083 0.92656778056766709 0 0.85170973911348691 0.93569607295217616 0 0.84999999999965292 1 0 0.81486180804382891 0.96321394949790495 0 0.79999999999999982 1 0 0.81486180804382891 0.96321394949790495 0 0.79999999999999982 1 0 0.770759834363826 0.95919399014344442 0 0.79999999999999982 1 0 0.75000000000034661 1 0 0.770759834363826 0.95919399014344442 0 0.7250000000005199 0.94981617647078953 0 0.770759834363826 0.95919399014344442 0 0.75729602384198635 0.92353652857884294 0 0.81486180804382891 0.96321394949790495 0 0.770759834363826 0.95919399014344442 0 0.79680861578988083 0.92656778056766709 0 0.79680861578988083 0.92656778056766709 0 0.75729602384198635 0.92353652857884294 0 0.76891166905518427 0.88835469571185499 0 0.770759834363826 0.95919399014344442 0 0.79680861578988083 0.92656778056766709 0 0.75729602384198635 0.92353652857884294 0 0.7250000000005199 0.89375000000045834 0 0.75729602384198635 0.92353652857884294 0 0.76891166905518427 0.88835469571185499 0 0.79680861578988083 0.92656778056766709 0 0.76891166905518427 0.88835469571185499 0 0.81159157511211755 0.88795995483179491 0 0.81159157511211755 0.88795995483179491 0 0.85170973911348691 0.93569607295217616 0 0.85600844944837662 0.88483418979512773 0 0.79680861578988083 0.92656778056766709 0 0.81159157511211755 0.88795995483179491 0 0.85170973911348691 0.93569607295217616 0 0.85170973911348691 0.93569607295217616 0 0.85600844944837662 0.88483418979512773 0 0.90416666666660628 0.9041666666666166 0 0.85600844944837662 0.88483418979512773 0 0.82709327591091286 0.84937141670920724 0 0.88088768115933802 0.84674609810493673 0 0.82709327591091286 0.84937141670920724 0 0.84725310900444062 0.80779732082917555 0 0.88088768115933802 0.84674609810493673 0 0.82709327591091286 0.84937141670920724 0 0.80041942726660109 0.81543261647703358 0 0.84725310900444062 0.80779732082917555 0 0.81159157511211755 0.88795995483179491 0 0.85600844944837662 0.88483418979512773 0 0.82709327591091286 0.84937141670920724 0 0.76891166905518427 0.88835469571185499 0 0.81159157511211755 0.88795995483179491 0 0.76901770135486491 0.84293557325473656 0 0.81159157511211755 0.88795995483179491 0 0.82709327591091286 0.84937141670920724 0 0.76901770135486491 0.84293557325473656 0 0.72863726579783861 0.85390518901155588 0 0.76891166905518427 0.88835469571185499 0 0.76901770135486491 0.84293557325473656 0 0.76901770135486491 0.84293557325473656 0 0.80041942726660109 0.81543261647703358 0 0.77094201086366854 0.79647480515688507 0 0.82709327591091286 0.84937141670920724 0 0.76901770135486491 0.84293557325473656 0 0.80041942726660109 0.81543261647703358 0 0.80041942726660109 0.81543261647703358 0 0.77094201086366854 0.79647480515688507 0 0.80185942888539485 0.77452061303608133 0 0.72500000000000064 0.7952620967744265 0 0.77094201086366854 0.79647480515688507 0 0.75841349681148107 0.75422312624214749 0 0.72500000000000064 0.7952620967744265 0 0.76901770135486491 0.84293557325473656 0 0.77094201086366854 0.79647480515688507 0 0.77094201086366854 0.79647480515688507 0 0.75841349681148107 0.75422312624214749 0 0.80185942888539485 0.77452061303608133 0 0.75841349681148107 0.75422312624214749 0 0.80185942888539485 0.77452061303608133 0 0.78578450296893509 0.73292684821144505 0 0.80185942888539485 0.77452061303608133 0 0.84725310900444062 0.80779732082917555 0 0.85491058998424563 0.76004753345552634 0 0.80185942888539485 0.77452061303608133 0 0.85491058998424563 0.76004753345552634 0 0.81864958914779962 0.73589050177899629 0 0.80041942726660109 0.81543261647703358 0 0.80185942888539485 0.77452061303608133 0 0.84725310900444062 0.80779732082917555 0 0.84725310900444062 0.80779732082917555 0 0.85491058998424563 0.76004753345552634 0 0.90299850604011456 0.79563452813489832 0 0.85491058998424563 0.76004753345552634 0 0.90299850604011456 0.79563452813489832 0 0.89999166460796554 0.74528934923809909 0 0.90299850604011456 0.79563452813489832 0 0.94399509803918602 0.75600490196082126 0 0.95386563387742829 0.80414874155775029 0 0.90299850604011456 0.79563452813489832 0 0.94399509803918602 0.75600490196082126 0 0.89999166460796554 0.74528934923809909 0 0.94399509803918602 0.75600490196082126 0 0.97435614836745565 0.77499999999987745 0 0.95386563387742829 0.80414874155775029 0 0.94399509803918602 0.75600490196082126 0 0.97435614836745565 0.77499999999987745 0 0.97166519676947294 0.73337114490064459 0 0.97435614836745565 0.77499999999987745 0 0.97166519676947294 0.73337114490064459 0 1 0.74999999999993494 0 0.97435614836745565 0.77499999999987745 0 1 0.7999999999998193 0 1 0.74999999999993494 0 0.97435614836745565 0.77499999999987745 0 1 0.7999999999998193 0 0.95386563387742829 0.80414874155775029 0 1 0.84999999999982645 0 0.93677536231884972 0.85000000000000286 0 0.95391631417670719 0.89584263333814784 0 0.95386563387742829 0.80414874155775029 0 1 0.84999999999982645 0 0.93677536231884972 0.85000000000000286 0 1 0.7999999999998193 0 0.95386563387742829 0.80414874155775029 0 1 0.84999999999982645 0 0.93677536231884972 0.85000000000000286 0 0.88088768115933802 0.84674609810493673 0 0.90416666666660628 0.9041666666666166 0 0.90299850604011456 0.79563452813489832 0 0.95386563387742829 0.80414874155775029 0 0.93677536231884972 0.85000000000000286 0 0.90299850604011456 0.79563452813489832 0 0.93677536231884972 0.85000000000000286 0 0.88088768115933802 0.84674609810493673 0 0.84725310900444062 0.80779732082917555 0 0.90299850604011456 0.79563452813489832 0 0.88088768115933802 0.84674609810493673 0 0.85600844944837662 0.88483418979512773 0 0.88088768115933802 0.84674609810493673 0 0.90416666666660628 0.9041666666666166 0 0.85170973911348691 0.93569607295217616 0 0.90416666666660628 0.9041666666666166 0 0.89898474358632463 0.95391965591118966 0 0.90416666666660628 0.9041666666666166 0 0.95391631417670719 0.89584263333814784 0 0.94399509803919068 0.9439950980391687 0 0.90416666666660628 0.9041666666666166 0 0.94399509803919068 0.9439950980391687 0 0.89898474358632463 0.95391965591118966 0 0.93677536231884972 0.85000000000000286 0 0.90416666666660628 0.9041666666666166 0 0.95391631417670719 0.89584263333814784 0 1 0.84999999999982645 0 0.95391631417670719 0.89584263333814784 0 1 0.8999999999998336 0 1 0.8999999999998336 0 0.97435614836744289 0.92499999999990257 0 1 0.94999999999997109 0 0.95391631417670719 0.89584263333814784 0 1 0.8999999999998336 0 0.97435614836744289 0.92499999999990257 0 0.95391631417670719 0.89584263333814784 0 0.97435614836744289 0.92499999999990257 0 0.94399509803919068 0.9439950980391687 0 0.97435614836744289 0.92499999999990257 0 0.94399509803919068 0.9439950980391687 0 0.97166519676946206 0.96662885509935492 0 0.97435614836744289 0.92499999999990257 0 0.97166519676946206 0.96662885509935492 0 1 0.94999999999997109 0 0.97166519676946206 0.96662885509935492 0 1 0.94999999999997109 0 1 1 0 0.97166519676946206 0.96662885509935492 0 1 1 0 0.94999999999979179 1 0 0.94399509803919068 0.9439950980391687 0 0.97166519676946206 0.96662885509935492 0 0.94999999999979179 1 0 0.94999999999979179 1 0 0.89898474358632463 0.95391965591118966 0 0.89999999999958358 1 0 0.94399509803919068 0.9439950980391687 0 0.94999999999979179 1 0 0.89898474358632463 0.95391965591118966 0 0.84999999999965292 1 0 0.89898474358632463 0.95391965591118966 0 0.89999999999958358 1 0 0.81723410853263523 0.59419663659258926 0 0.86956835336234861 0.571283299838105 0 0.82862096804812391 0.55037090955459045 0 0.81723410853263523 0.59419663659258926 0 0.87159648282691515 0.61285406320581504 0 0.83758014339878906 0.63222013025741819 0 0.81723410853263523 0.59419663659258926 0 0.79884539758237771 0.62875045078114233 0 0.83758014339878906 0.63222013025741819 0 0.81723410853263523 0.59419663659258926 0 0.87159648282691515 0.61285406320581504 0 0.86956835336234861 0.571283299838105 0 0.86956835336234861 0.571283299838105 0 0.86907294890112186 0.52008116128001669 0 0.82862096804812391 0.55037090955459045 0 0.86907294890112186 0.52008116128001669 0 0.81441713509985358 0.51161854125224959 0 0.82862096804812391 0.55037090955459045 0 0.86907294890112186 0.52008116128001669 0 0.81441713509985358 0.51161854125224959 0 0.84723782639812573 0.48638347960178252 0 0.81441713509985358 0.51161854125224959 0 0.82862096804812391 0.55037090955459045 0 0.77151014687832564 0.54436834383023036 0 0.81441713509985358 0.51161854125224959 0 0.77151014687832564 0.54436834383023036 0 0.77846603114747959 0.49850927265137401 0 0.77151014687832564 0.54436834383023036 0 0.77846603114747959 0.49850927265137401 0 0.73947346780852752 0.49062440112282169 0 0.71809016091162536 0.58185040402320831 0 0.77151014687832564 0.54436834383023036 0 0.77293540622714185 0.59448302402785813 0 0.81723410853263523 0.59419663659258926 0 0.77151014687832564 0.54436834383023036 0 0.77293540622714185 0.59448302402785813 0 0.81723410853263523 0.59419663659258926 0 0.82862096804812391 0.55037090955459045 0 0.77151014687832564 0.54436834383023036 0 0.81723410853263523 0.59419663659258926 0 0.77293540622714185 0.59448302402785813 0 0.79884539758237771 0.62875045078114233 0 0.74994237037456724 0.62775548192980357 0 0.77293540622714185 0.59448302402785813 0 0.79884539758237771 0.62875045078114233 0 0.74994237037456724 0.62775548192980357 0 0.7750489929959945 0.66593931409600093 0 0.79884539758237771 0.62875045078114233 0 0.74999999999999989 0.69999999999999996 0 0.72500000000000064 0.67022701834392062 0 0.7750489929959945 0.66593931409600093 0 0.7750489929959945 0.66593931409600093 0 0.79999999999999982 0.69999999999999996 0 0.82457059160610424 0.66831947184359608 0 0.7750489929959945 0.66593931409600093 0 0.79884539758237771 0.62875045078114233 0 0.82457059160610424 0.66831947184359608 0 0.74999999999999989 0.69999999999999996 0 0.75841349681148107 0.75422312624214749 0 0.78578450296893509 0.73292684821144505 0 0.74999999999999989 0.69999999999999996 0 0.79999999999999982 0.69999999999999996 0 0.78578450296893509 0.73292684821144505 0 0.74999999999999989 0.69999999999999996 0 0.7750489929959945 0.66593931409600093 0 0.79999999999999982 0.69999999999999996 0 0.74999999999999989 0.69999999999999996 0 0.79999999999999982 0.69999999999999996 0 0.80185942888539485 0.77452061303608133 0 0.78578450296893509 0.73292684821144505 0 0.81864958914779962 0.73589050177899629 0 0.79999999999999982 0.69999999999999996 0 0.78578450296893509 0.73292684821144505 0 0.81864958914779962 0.73589050177899629 0 0.85491058998424563 0.76004753345552634 0 0.81864958914779962 0.73589050177899629 0 0.84999999999999987 0.69999999999999996 0 0.79999999999999982 0.69999999999999996 0 0.84999999999999987 0.69999999999999996 0 0.79999999999999982 0.69999999999999996 0 0.84999999999999987 0.69999999999999996 0 0.82457059160610424 0.66831947184359608 0 0.79999999999999982 0.69999999999999996 0 0.81864958914779962 0.73589050177899629 0 0.84999999999999987 0.69999999999999996 0 0.84999999999999987 0.69999999999999996 0 0.89999999999999991 0.69999999999999996 0 0.85491058998424563 0.76004753345552634 0 0.84999999999999987 0.69999999999999996 0 0.89999166460796554 0.74528934923809909 0 0.79884539758237771 0.62875045078114233 0 0.83758014339878906 0.63222013025741819 0 0.82457059160610424 0.66831947184359608 0 0.84999999999999987 0.69999999999999996 0 0.82457059160610424 0.66831947184359608 0 0.87712158428786946 0.65709029563313581 0 0.87159648282691515 0.61285406320581504 0 0.83758014339878906 0.63222013025741819 0 0.87712158428786946 0.65709029563313581 0 0.83758014339878906 0.63222013025741819 0 0.82457059160610424 0.66831947184359608 0 0.87712158428786946 0.65709029563313581 0 0.87712158428786946 0.65709029563313581 0 0.92057473616084773 0.66770436535372446 0 0.91750694127105259 0.63017627779935648 0 0.87159648282691515 0.61285406320581504 0 0.87712158428786946 0.65709029563313581 0 0.91750694127105259 0.63017627779935648 0 0.84999999999999987 0.69999999999999996 0 0.87712158428786946 0.65709029563313581 0 0.89999999999999991 0.69999999999999996 0 0.87712158428786946 0.65709029563313581 0 0.92057473616084773 0.66770436535372446 0 0.89999999999999991 0.69999999999999996 0 0.92057473616084773 0.66770436535372446 0 0.91750694127105259 0.63017627779935648 0 0.9578014258160763 0.65787212321113708 0 0.84999999999999987 0.69999999999999996 0 0.89999166460796554 0.74528934923809909 0 0.89999999999999991 0.69999999999999996 0 0.89999999999999991 0.69999999999999996 0 0.94999999999999996 0.69999999999999996 0 0.92057473616084773 0.66770436535372446 0 0.89999999999999991 0.69999999999999996 0 0.94999999999999996 0.69999999999999996 0 0.89999166460796554 0.74528934923809909 0 0.89999999999999991 0.69999999999999996 0 0.94999999999999996 0.69999999999999996 0 0.94399509803918602 0.75600490196082126 0 0.89999166460796554 0.74528934923809909 0 0.94999999999999996 0.69999999999999996 0 0.94399509803918602 0.75600490196082126 0 0.94999999999999996 0.69999999999999996 0 0.97166519676947294 0.73337114490064459 0 0.94999999999999996 0.69999999999999996 0 1 0.69999999999999996 0 0.94999999999999996 0.69999999999999996 0 1 0.69999999999999996 0 0.97166519676947294 0.73337114490064459 0 1 0.69999999999999996 0 0.97166519676947294 0.73337114490064459 0 1 0.74999999999993494 0 0.91750694127105259 0.63017627779935648 0 0.9578014258160763 0.65787212321113708 0 0.95867599106212187 0.60011091146651041 0 0.92057473616084773 0.66770436535372446 0 0.94999999999999996 0.69999999999999996 0 0.9578014258160763 0.65787212321113708 0 0.94999999999999996 0.69999999999999996 0 1 0.69999999999999996 0 0.9578014258160763 0.65787212321113708 0 1 0.69999999999999996 0 0.9578014258160763 0.65787212321113708 0 1 0.64999999999986979 0 0.9578014258160763 0.65787212321113708 0 1 0.64999999999986979 0 0.95867599106212187 0.60011091146651041 0 0.95867599106212187 0.60011091146651041 0 0.93732437411268477 0.55911392101136159 0 1 0.54999999999963112 0 1 0.64999999999986979 0 1 0.59999999999973963 0 0.95867599106212187 0.60011091146651041 0 1 0.59999999999973963 0 0.95867599106212187 0.60011091146651041 0 1 0.54999999999963112 0 0.91750694127105259 0.63017627779935648 0 0.95867599106212187 0.60011091146651041 0 0.91143117093204207 0.58709913730335972 0 0.95867599106212187 0.60011091146651041 0 0.91143117093204207 0.58709913730335972 0 0.93732437411268477 0.55911392101136159 0 0.86956835336234861 0.571283299838105 0 0.91143117093204207 0.58709913730335972 0 0.90900154012161016 0.53607784105648792 0 0.87159648282691515 0.61285406320581504 0 0.86956835336234861 0.571283299838105 0 0.91143117093204207 0.58709913730335972 0 0.87159648282691515 0.61285406320581504 0 0.91750694127105259 0.63017627779935648 0 0.91143117093204207 0.58709913730335972 0 0.86907294890112186 0.52008116128001669 0 0.90900154012161016 0.53607784105648792 0 0.91696753777131557 0.497780560203536 0 0.86956835336234861 0.571283299838105 0 0.86907294890112186 0.52008116128001669 0 0.90900154012161016 0.53607784105648792 0 0.90900154012161016 0.53607784105648792 0 0.93732437411268477 0.55911392101136159 0 0.95631871884947484 0.51827533208233789 0 0.91143117093204207 0.58709913730335972 0 0.90900154012161016 0.53607784105648792 0 0.93732437411268477 0.55911392101136159 0 0.90900154012161016 0.53607784105648792 0 0.95631871884947484 0.51827533208233789 0 0.91696753777131557 0.497780560203536 0 0.93732437411268477 0.55911392101136159 0 0.95631871884947484 0.51827533208233789 0 1 0.54999999999963112 0 0.95631871884947484 0.51827533208233789 0 1 0.54999999999963112 0 1 0.49999999999950101 0 0.95631871884947484 0.51827533208233789 0 1 0.49999999999950101 0 0.96228564064454991 0.48206450662049471 0 1 0.49999999999950101 0 1 0.44999999999963131 0 0.96228564064454991 0.48206450662049471 0 1 0.44999999999963131 0 0.93814194660195893 0.44426664081746747 0 0.96228564064454991 0.48206450662049471 0 0.93814194660195893 0.44426664081746747 0 0.96228564064454991 0.48206450662049471 0 0.91696753777131557 0.497780560203536 0 0.95631871884947484 0.51827533208233789 0 0.96228564064454991 0.48206450662049471 0 0.91696753777131557 0.497780560203536 0 1 0.39999999999978308 0 0.95871855522754235 0.40006508612975411 0 1 0.34999999999993492 0 1 0.44999999999963131 0 1 0.39999999999978308 0 0.95871855522754235 0.40006508612975411 0 1 0.44999999999963131 0 0.93814194660195893 0.44426664081746747 0 0.95871855522754235 0.40006508612975411 0 0.95871855522754235 0.40006508612975411 0 0.90594285160987287 0.4141265964174129 0 0.91750694127107502 0.36982372220068471 0 0.93814194660195893 0.44426664081746747 0 0.95871855522754235 0.40006508612975411 0 0.90594285160987287 0.4141265964174129 0 0.90594285160987287 0.4141265964174129 0 0.88594198078881503 0.46167788676578442 0 0.86411095495256451 0.42388805655111889 0 0.90594285160987287 0.4141265964174129 0 0.86411095495256451 0.42388805655111889 0 0.86844634540301924 0.38530937474099819 0 0.90594285160987287 0.4141265964174129 0 0.86844634540301924 0.38530937474099819 0 0.91750694127107502 0.36982372220068471 0 0.93814194660195893 0.44426664081746747 0 0.91696753777131557 0.497780560203536 0 0.88594198078881503 0.46167788676578442 0 0.93814194660195893 0.44426664081746747 0 0.90594285160987287 0.4141265964174129 0 0.88594198078881503 0.46167788676578442 0 0.86907294890112186 0.52008116128001669 0 0.91696753777131557 0.497780560203536 0 0.88594198078881503 0.46167788676578442 0 0.86907294890112186 0.52008116128001669 0 0.88594198078881503 0.46167788676578442 0 0.84723782639812573 0.48638347960178252 0 0.81441713509985358 0.51161854125224959 0 0.84723782639812573 0.48638347960178252 0 0.81400510706333218 0.47357325943904899 0 0.84723782639812573 0.48638347960178252 0 0.81400510706333218 0.47357325943904899 0 0.84925632466077294 0.45359738909549091 0 0.81400510706333218 0.47357325943904899 0 0.84925632466077294 0.45359738909549091 0 0.81973119833356312 0.43505687159469048 0 0.88594198078881503 0.46167788676578442 0 0.84723782639812573 0.48638347960178252 0 0.84925632466077294 0.45359738909549091 0 0.84925632466077294 0.45359738909549091 0 0.86411095495256451 0.42388805655111889 0 0.81973119833356312 0.43505687159469048 0 0.88594198078881503 0.46167788676578442 0 0.84925632466077294 0.45359738909549091 0 0.86411095495256451 0.42388805655111889 0 0.86411095495256451 0.42388805655111889 0 0.86844634540301924 0.38530937474099819 0 0.81308179852519835 0.39754945808726527 0 0.86844634540301924 0.38530937474099819 0 0.81308179852519835 0.39754945808726527 0 0.83573492347052902 0.36590755630746369 0 0.86411095495256451 0.42388805655111889 0 0.81308179852519835 0.39754945808726527 0 0.81973119833356312 0.43505687159469048 0 0.81973119833356312 0.43505687159469048 0 0.77354604466818633 0.40378688774472771 0 0.77972660463949339 0.45529290596363098 0 0.81308179852519835 0.39754945808726527 0 0.81973119833356312 0.43505687159469048 0 0.77354604466818633 0.40378688774472771 0 0.81308179852519835 0.39754945808726527 0 0.77354604466818633 0.40378688774472771 0 0.78145581580700685 0.34881365920033602 0 0.77354604466818633 0.40378688774472771 0 0.77972660463949339 0.45529290596363098 0 0.73483647259922602 0.44789725365921768 0 0.77972660463949339 0.45529290596363098 0 0.73483647259922602 0.44789725365921768 0 0.73947346780852752 0.49062440112282169 0 0.77972660463949339 0.45529290596363098 0 0.77846603114747959 0.49850927265137401 0 0.73947346780852752 0.49062440112282169 0 0.81400510706333218 0.47357325943904899 0 0.77972660463949339 0.45529290596363098 0 0.77846603114747959 0.49850927265137401 0 0.81441713509985358 0.51161854125224959 0 0.81400510706333218 0.47357325943904899 0 0.77846603114747959 0.49850927265137401 0 0.81400510706333218 0.47357325943904899 0 0.81973119833356312 0.43505687159469048 0 0.77972660463949339 0.45529290596363098 0 0.79999999999999982 0.29999999999999999 0 0.77075983436335049 0.25919399014334171 0 0.81486180804364938 0.26321394949780091 0 0.79999999999999982 0.29999999999999999 0 0.74999999999999989 0.29999999999999999 0 0.79999999999999982 0.29999999999999999 0 0.77075983436335049 0.25919399014334171 0 0.74999999999999989 0.29999999999999999 0 0.79999999999999982 0.29999999999999999 0 0.78145581580700685 0.34881365920033602 0 0.74999999999999989 0.29999999999999999 0 0.78145581580700685 0.34881365920033602 0 0.73090396928863699 0.33699297293167962 0 0.74999999999999989 0.29999999999999999 0 0.77354604466818633 0.40378688774472771 0 0.78145581580700685 0.34881365920033602 0 0.74764719760526988 0.3719647154012321 0 0.78145581580700685 0.34881365920033602 0 0.74764719760526988 0.3719647154012321 0 0.73090396928863699 0.33699297293167962 0 0.81308179852519835 0.39754945808726527 0 0.78145581580700685 0.34881365920033602 0 0.83573492347052902 0.36590755630746369 0 0.79999999999999982 0.29999999999999999 0 0.78145581580700685 0.34881365920033602 0 0.82500000000000062 0.33010209762754811 0 0.78145581580700685 0.34881365920033602 0 0.82500000000000062 0.33010209762754811 0 0.83573492347052902 0.36590755630746369 0 0.82500000000000062 0.33010209762754811 0 0.83573492347052902 0.36590755630746369 0 0.87430060258887643 0.34056085888204451 0 0.86844634540301924 0.38530937474099819 0 0.83573492347052902 0.36590755630746369 0 0.87430060258887643 0.34056085888204451 0 0.82500000000000062 0.33010209762754811 0 0.87430060258887643 0.34056085888204451 0 0.84999999999999987 0.29999999999999999 0 0.87430060258887643 0.34056085888204451 0 0.84999999999999987 0.29999999999999999 0 0.89999999999999991 0.29999999999999999 0 0.84999999999999987 0.29999999999999999 0 0.81486180804364938 0.26321394949780091 0 0.8517097391133297 0.2356960729520409 0 0.84999999999999987 0.29999999999999999 0 0.89898474358614167 0.25391965591104898 0 0.8517097391133297 0.2356960729520409 0 0.84999999999999987 0.29999999999999999 0 0.89999999999999991 0.29999999999999999 0 0.79999999999999982 0.29999999999999999 0 0.82500000000000062 0.33010209762754811 0 0.84999999999999987 0.29999999999999999 0 0.79999999999999982 0.29999999999999999 0 0.84999999999999987 0.29999999999999999 0 0.81486180804364938 0.26321394949780091 0 0.79999999999999982 0.29999999999999999 0 0.84999999999999987 0.29999999999999999 0 0.84999999999999987 0.29999999999999999 0 0.89898474358614167 0.25391965591104898 0 0.89999999999999991 0.29999999999999999 0 0.89999999999999991 0.29999999999999999 0 0.94999999999999996 0.29999999999999999 0 0.89999999999999991 0.29999999999999999 0 0.92012390126144183 0.33123581297173937 0 0.94999999999999996 0.29999999999999999 0 0.89898474358614167 0.25391965591104898 0 0.89999999999999991 0.29999999999999999 0 0.94999999999999996 0.29999999999999999 0 0.89898474358614167 0.25391965591104898 0 0.94999999999999996 0.29999999999999999 0 0.94399509803921056 0.24399509803922639 0 0.86844634540301924 0.38530937474099819 0 0.87430060258887643 0.34056085888204451 0 0.91750694127107502 0.36982372220068471 0 0.87430060258887643 0.34056085888204451 0 0.92012390126144183 0.33123581297173937 0 0.91750694127107502 0.36982372220068471 0 0.87430060258887643 0.34056085888204451 0 0.89999999999999991 0.29999999999999999 0 0.92012390126144183 0.33123581297173937 0 0.92012390126144183 0.33123581297173937 0 0.91750694127107502 0.36982372220068471 0 0.95780851984364423 0.34215720972155339 0 0.95871855522754235 0.40006508612975411 0 0.91750694127107502 0.36982372220068471 0 0.95780851984364423 0.34215720972155339 0 0.92012390126144183 0.33123581297173937 0 0.95780851984364423 0.34215720972155339 0 0.94999999999999996 0.29999999999999999 0 0.95780851984364423 0.34215720972155339 0 0.94999999999999996 0.29999999999999999 0 1 0.29999999999999999 0 0.95780851984364423 0.34215720972155339 0 1 0.34999999999993492 0 1 0.29999999999999999 0 0.95871855522754235 0.40006508612975411 0 0.95780851984364423 0.34215720972155339 0 1 0.34999999999993492 0 0.94999999999999996 0.29999999999999999 0 0.97166519676951801 0.26662885509932011 0 0.94399509803921056 0.24399509803922639 0 0.94999999999999996 0.29999999999999999 0 1 0.29999999999999999 0 0.94999999999999996 0.29999999999999999 0 1 0.29999999999999999 0 0.97166519676951801 0.26662885509932011 0 1 0.29999999999999999 0 0.97166519676951801 0.26662885509932011 0 1 0.24999999999987299 0 0.97166519676951801 0.26662885509932011 0 0.97435614836740092 0.22499999999981049 0 1 0.24999999999987299 0 0.97435614836740092 0.22499999999981049 0 1 0.24999999999987299 0 1 0.19999999999974799 0 0.97435614836740092 0.22499999999981049 0 0.94399509803921056 0.24399509803922639 0 0.95391631417672862 0.19584263333809451 0 0.97166519676951801 0.26662885509932011 0 0.97435614836740092 0.22499999999981049 0 0.94399509803921056 0.24399509803922639 0 0.97435614836740092 0.22499999999981049 0 0.95391631417672862 0.19584263333809451 0 1 0.19999999999974799 0 0.95391631417672862 0.19584263333809451 0 1 0.14999999999961891 0 0.93677536231883773 0.14999999999999089 0 1 0.14999999999961891 0 0.93677536231883773 0.14999999999999089 0 0.95386563387744361 0.1041487415577465 0 0.95391631417672862 0.19584263333809451 0 1 0.19999999999974799 0 1 0.14999999999961891 0 0.95391631417672862 0.19584263333809451 0 0.93677536231883773 0.14999999999999089 0 0.90416666666668166 0.20416666666667119 0 0.93677536231883773 0.14999999999999089 0 0.88088768115941807 0.14674609810479519 0 0.90416666666668166 0.20416666666667119 0 0.93677536231883773 0.14999999999999089 0 0.88088768115941807 0.14674609810479519 0 0.90299850604006393 0.09563452813493091 0 0.88088768115941807 0.14674609810479519 0 0.90416666666668166 0.20416666666667119 0 0.85600844944842547 0.1848341897950983 0 0.89898474358614167 0.25391965591104898 0 0.90416666666668166 0.20416666666667119 0 0.8517097391133297 0.2356960729520409 0 0.89898474358614167 0.25391965591104898 0 0.94399509803921056 0.24399509803922639 0 0.90416666666668166 0.20416666666667119 0 0.94399509803921056 0.24399509803922639 0 0.95391631417672862 0.19584263333809451 0 0.90416666666668166 0.20416666666667119 0 0.94999999999986839 0 0 0.97166519676946894 0.033371144900598393 0 0.94399509803922566 0.056004901960802607 0 0.94999999999986839 0 0 1 0 0 0.97166519676946894 0.033371144900598393 0 1 0 0 1 0.049999999999896842 0 0.97166519676946894 0.033371144900598393 0 1 0.049999999999896842 0 0.97166519676946894 0.033371144900598393 0 0.97435614836748241 0.074999999999825387 0 0.97166519676946894 0.033371144900598393 0 0.94399509803922566 0.056004901960802607 0 0.97435614836748241 0.074999999999825387 0 0.94399509803922566 0.056004901960802607 0 0.97435614836748241 0.074999999999825387 0 0.95386563387744361 0.1041487415577465 0 0.97435614836748241 0.074999999999825387 0 1 0.099999999999753911 0 0.95386563387744361 0.1041487415577465 0 1 0.049999999999896842 0 0.97435614836748241 0.074999999999825387 0 1 0.099999999999753911 0 1 0.14999999999961891 0 1 0.099999999999753911 0 0.95386563387744361 0.1041487415577465 0 0.93677536231883773 0.14999999999999089 0 0.95386563387744361 0.1041487415577465 0 0.90299850604006393 0.09563452813493091 0 0.88088768115941807 0.14674609810479519 0 0.90299850604006393 0.09563452813493091 0 0.84725310900442086 0.10779732082922661 0 0.90299850604006393 0.09563452813493091 0 0.899991664607802 0.045289349238254978 0 0.85491058998398861 0.060047533455626502 0 0.94399509803922566 0.056004901960802607 0 0.95386563387744361 0.1041487415577465 0 0.90299850604006393 0.09563452813493091 0 0.94399509803922566 0.056004901960802607 0 0.90299850604006393 0.09563452813493091 0 0.899991664607802 0.045289349238254978 0 0.94999999999986839 0 0 0.94399509803922566 0.056004901960802607 0 0.899991664607802 0.045289349238254978 0 0.899991664607802 0.045289349238254978 0 0.89999999999973679 0 0 0.84999999999960507 0 0 0.94999999999986839 0 0 0.899991664607802 0.045289349238254978 0 0.89999999999973679 0 0 0.84999999999960507 0 0 0.81864958914740749 0.035890501779055867 0 0.79999999999947335 0 0 0.899991664607802 0.045289349238254978 0 0.84999999999960507 0 0 0.85491058998398861 0.060047533455626502 0 0.85491058998398861 0.060047533455626502 0 0.81864958914740749 0.035890501779055867 0 0.80185942888501827 0.074520613036224564 0 0.84999999999960507 0 0 0.85491058998398861 0.060047533455626502 0 0.81864958914740749 0.035890501779055867 0 0.85491058998398861 0.060047533455626502 0 0.84725310900442086 0.10779732082922661 0 0.80185942888501827 0.074520613036224564 0 0.90299850604006393 0.09563452813493091 0 0.85491058998398861 0.060047533455626502 0 0.84725310900442086 0.10779732082922661 0 0.84725310900442086 0.10779732082922661 0 0.80076557130237269 0.1154587552654202 0 0.80185942888501827 0.074520613036224564 0 0.84725310900442086 0.10779732082922661 0 0.80076557130237269 0.1154587552654202 0 0.82709327591102189 0.14937141670914489 0 0.80076557130237269 0.1154587552654202 0 0.76878382444651716 0.097147941686331368 0 0.80185942888501827 0.074520613036224564 0 0.76878382444651716 0.097147941686331368 0 0.77144070960558853 0.14311854477243749 0 0.72525833953073282 0.1032114801687094 0 0.80076557130237269 0.1154587552654202 0 0.76878382444651716 0.097147941686331368 0 0.77144070960558853 0.14311854477243749 0 0.76878382444651716 0.097147941686331368 0 0.80185942888501827 0.074520613036224564 0 0.7527966693318906 0.053051678021508272 0 0.81864958914740749 0.035890501779055867 0 0.80185942888501827 0.074520613036224564 0 0.78393852574753176 0.032039079577822822 0 0.80185942888501827 0.074520613036224564 0 0.78393852574753176 0.032039079577822822 0 0.7527966693318906 0.053051678021508272 0 0.78393852574753176 0.032039079577822822 0 0.7527966693318906 0.053051678021508272 0 0.74999999999934175 0 0 0.78393852574753176 0.032039079577822822 0 0.79999999999947335 0 0 0.74999999999934175 0 0 0.81864958914740749 0.035890501779055867 0 0.78393852574753176 0.032039079577822822 0 0.79999999999947335 0 0 0.81283102246527783 0.1881007222486438 0 0.8517097391133297 0.2356960729520409 0 0.79680861578956375 0.22656778056752541 0 0.81283102246527783 0.1881007222486438 0 0.8517097391133297 0.2356960729520409 0 0.85600844944842547 0.1848341897950983 0 0.81486180804364938 0.26321394949780091 0 0.8517097391133297 0.2356960729520409 0 0.79680861578956375 0.22656778056752541 0 0.90416666666668166 0.20416666666667119 0 0.8517097391133297 0.2356960729520409 0 0.85600844944842547 0.1848341897950983 0 0.88088768115941807 0.14674609810479519 0 0.85600844944842547 0.1848341897950983 0 0.82709327591102189 0.14937141670914489 0 0.88088768115941807 0.14674609810479519 0 0.84725310900442086 0.10779732082922661 0 0.82709327591102189 0.14937141670914489 0 0.81283102246527783 0.1881007222486438 0 0.85600844944842547 0.1848341897950983 0 0.82709327591102189 0.14937141670914489 0 0.81283102246527783 0.1881007222486438 0 0.77144070960558853 0.14311854477243749 0 0.76587607630038135 0.18880039518954719 0 0.81283102246527783 0.1881007222486438 0 0.82709327591102189 0.14937141670914489 0 0.77144070960558853 0.14311854477243749 0 0.80076557130237269 0.1154587552654202 0 0.82709327591102189 0.14937141670914489 0 0.77144070960558853 0.14311854477243749 0 0.77144070960558853 0.14311854477243749 0 0.76587607630038135 0.18880039518954719 0 0.72634814642510737 0.16106886917518889 0 0.76587607630038135 0.18880039518954719 0 0.79680861578956375 0.22656778056752541 0 0.75668890529066124 0.2244279804069782 0 0.81283102246527783 0.1881007222486438 0 0.76587607630038135 0.18880039518954719 0 0.79680861578956375 0.22656778056752541 0 0.77075983436335049 0.25919399014334171 0 0.81486180804364938 0.26321394949780091 0 0.79680861578956375 0.22656778056752541 0 0.77075983436335049 0.25919399014334171 0 0.79680861578956375 0.22656778056752541 0 0.75668890529066124 0.2244279804069782 0 0.77075983436335049 0.25919399014334171 0 0.75668890529066124 0.2244279804069782 0 0.72500000000000064 0.2498161764706 0 0.75668890529066124 0.2244279804069782 0 0.72500000000000064 0.2498161764706 0 0.72500000000001008 0.19776155966387679 0 0.72500000000000064 0.2498161764706 0 0.69397719155551807 0.2245125647000914 0 0.72500000000001008 0.19776155966387679 0 0.72500000000000064 0.2498161764706 0 0.69397719155551807 0.2245125647000914 0 0.67933712972090698 0.25920070958121938 0 0.69397719155551807 0.2245125647000914 0 0.72500000000001008 0.19776155966387679 0 0.6865991819015953 0.189116534044597 0 0.76587607630038135 0.18880039518954719 0 0.75668890529066124 0.2244279804069782 0 0.72500000000001008 0.19776155966387679 0 0.76587607630038135 0.18880039518954719 0 0.72500000000001008 0.19776155966387679 0 0.72634814642510737 0.16106886917518889 0 0.77144070960558853 0.14311854477243749 0 0.72634814642510737 0.16106886917518889 0 0.72525833953073282 0.1032114801687094 0 0.72634814642510737 0.16106886917518889 0 0.68391457121233579 0.14440470121196541 0 0.72525833953073282 0.1032114801687094 0 0.72500000000001008 0.19776155966387679 0 0.72634814642510737 0.16106886917518889 0 0.6865991819015953 0.189116534044597 0 0.72634814642510737 0.16106886917518889 0 0.68391457121233579 0.14440470121196541 0 0.6865991819015953 0.189116534044597 0 0.68391457121233579 0.14440470121196541 0 0.64011864159029941 0.18789607982138171 0 0.6865991819015953 0.189116534044597 0 0.68391457121233579 0.14440470121196541 0 0.65290632656860115 0.11434202593454081 0 0.6236733212988993 0.14864538214901801 0 0.68391457121233579 0.14440470121196541 0 0.64011864159029941 0.18789607982138171 0 0.6236733212988993 0.14864538214901801 0 0.64011864159029941 0.18789607982138171 0 0.65394964615507722 0.22666784374016369 0 0.59814117807200873 0.23398510860739519 0 0.65394964615507722 0.22666784374016369 0 0.59814117807200873 0.23398510860739519 0 0.62657463266645097 0.26524202571255862 0 0.69397719155551807 0.2245125647000914 0 0.65394964615507722 0.22666784374016369 0 0.67933712972090698 0.25920070958121938 0 0.64011864159029941 0.18789607982138171 0 0.65394964615507722 0.22666784374016369 0 0.6865991819015953 0.189116534044597 0 0.69397719155551807 0.2245125647000914 0 0.65394964615507722 0.22666784374016369 0 0.6865991819015953 0.189116534044597 0 0.69999999999921003 0 0 0.72683645290270404 0.027797073151180601 0 0.7010294155333181 0.056779085686491267 0 0.69999999999921003 0 0 0.7010294155333181 0.056779085686491267 0 0.66369801598854572 0.036327466368102787 0 0.7527966693318906 0.053051678021508272 0 0.74999999999934175 0 0 0.72683645290270404 0.027797073151180601 0 0.69999999999921003 0 0 0.74999999999934175 0 0 0.72683645290270404 0.027797073151180601 0 0.7527966693318906 0.053051678021508272 0 0.72683645290270404 0.027797073151180601 0 0.7010294155333181 0.056779085686491267 0 0.7010294155333181 0.056779085686491267 0 0.72525833953073282 0.1032114801687094 0 0.68330259535470161 0.10038702501083881 0 0.7527966693318906 0.053051678021508272 0 0.7010294155333181 0.056779085686491267 0 0.72525833953073282 0.1032114801687094 0 0.76878382444651716 0.097147941686331368 0 0.7527966693318906 0.053051678021508272 0 0.72525833953073282 0.1032114801687094 0 0.68391457121233579 0.14440470121196541 0 0.72525833953073282 0.1032114801687094 0 0.68330259535470161 0.10038702501083881 0 0.68330259535470161 0.10038702501083881 0 0.65290632656860115 0.11434202593454081 0 0.65408113592120842 0.073941773121567966 0 0.68391457121233579 0.14440470121196541 0 0.68330259535470161 0.10038702501083881 0 0.65290632656860115 0.11434202593454081 0 0.65290632656860115 0.11434202593454081 0 0.61956000905586006 0.1043312481793135 0 0.6236733212988993 0.14864538214901801 0 0.65290632656860115 0.11434202593454081 0 0.65408113592120842 0.073941773121567966 0 0.61956000905586006 0.1043312481793135 0 0.65408113592120842 0.073941773121567966 0 0.61940220174112337 0.047251958781050582 0 0.61956000905586006 0.1043312481793135 0 0.7010294155333181 0.056779085686491267 0 0.68330259535470161 0.10038702501083881 0 0.65408113592120842 0.073941773121567966 0 0.7010294155333181 0.056779085686491267 0 0.65408113592120842 0.073941773121567966 0 0.66369801598854572 0.036327466368102787 0 0.65408113592120842 0.073941773121567966 0 0.66369801598854572 0.036327466368102787 0 0.61940220174112337 0.047251958781050582 0 0.66369801598854572 0.036327466368102787 0 0.64999999999907843 0 0 0.61940220174112337 0.047251958781050582 0 0.69999999999921003 0 0 0.66369801598854572 0.036327466368102787 0 0.64999999999907843 0 0 0.59999999999894682 0 0 0.57396793757665954 0.037011367187645222 0 0.5499999999988151 0 0 0.64999999999907843 0 0 0.59999999999894682 0 0 0.61940220174112337 0.047251958781050582 0 0.59999999999894682 0 0 0.61940220174112337 0.047251958781050582 0 0.57396793757665954 0.037011367187645222 0 0.61940220174112337 0.047251958781050582 0 0.57396793757665954 0.037011367187645222 0 0.57667858002728545 0.078486105337742612 0 0.61940220174112337 0.047251958781050582 0 0.57667858002728545 0.078486105337742612 0 0.61956000905586006 0.1043312481793135 0 0.61956000905586006 0.1043312481793135 0 0.58516465772821369 0.11653801664834119 0 0.6236733212988993 0.14864538214901801 0 0.57667858002728545 0.078486105337742612 0 0.61956000905586006 0.1043312481793135 0 0.58516465772821369 0.11653801664834119 0 0.58516465772821369 0.11653801664834119 0 0.54979595918804436 0.1060565713905809 0 0.56202748619534593 0.15054058349222879 0 0.57667858002728545 0.078486105337742612 0 0.58516465772821369 0.11653801664834119 0 0.54979595918804436 0.1060565713905809 0 0.54979595918804436 0.1060565713905809 0 0.51076801031701946 0.1202837388510348 0 0.52375890611712683 0.059318771819432882 0 0.47881186583059909 0.093591717165689425 0 0.51076801031701946 0.1202837388510348 0 0.52375890611712683 0.059318771819432882 0 0.57667858002728545 0.078486105337742612 0 0.54979595918804436 0.1060565713905809 0 0.52375890611712683 0.059318771819432882 0 0.57396793757665954 0.037011367187645222 0 0.52375890611712683 0.059318771819432882 0 0.5499999999988151 0 0 0.57396793757665954 0.037011367187645222 0 0.57667858002728545 0.078486105337742612 0 0.52375890611712683 0.059318771819432882 0 0.49999999999869432 0 0 0.52375890611712683 0.059318771819432882 0 0.5499999999988151 0 0 0.59814117807200873 0.23398510860739519 0 0.59443395090188023 0.18455690917515069 0 0.55306006949600994 0.20198184231352201 0 0.59814117807200873 0.23398510860739519 0 0.55306006949600994 0.20198184231352201 0 0.54248833945060504 0.2520322959927106 0 0.64011864159029941 0.18789607982138171 0 0.59814117807200873 0.23398510860739519 0 0.59443395090188023 0.18455690917515069 0 0.64011864159029941 0.18789607982138171 0 0.59443395090188023 0.18455690917515069 0 0.6236733212988993 0.14864538214901801 0 0.58516465772821369 0.11653801664834119 0 0.6236733212988993 0.14864538214901801 0 0.56202748619534593 0.15054058349222879 0 0.59443395090188023 0.18455690917515069 0 0.6236733212988993 0.14864538214901801 0 0.56202748619534593 0.15054058349222879 0 0.59443395090188023 0.18455690917515069 0 0.56202748619534593 0.15054058349222879 0 0.55306006949600994 0.20198184231352201 0 0.56202748619534593 0.15054058349222879 0 0.51729576145820033 0.1683240575987815 0 0.55306006949600994 0.20198184231352201 0 0.54979595918804436 0.1060565713905809 0 0.51076801031701946 0.1202837388510348 0 0.56202748619534593 0.15054058349222879 0 0.48466639505193998 0.1421439844745814 0 0.51076801031701946 0.1202837388510348 0 0.51729576145820033 0.1683240575987815 0 0.51076801031701946 0.1202837388510348 0 0.56202748619534593 0.15054058349222879 0 0.51729576145820033 0.1683240575987815 0 0.51729576145820033 0.1683240575987815 0 0.50760557329222289 0.20700468884612061 0 0.55306006949600994 0.20198184231352201 0 0.50760557329222289 0.20700468884612061 0 0.55306006949600994 0.20198184231352201 0 0.54248833945060504 0.2520322959927106 0 0.49695729691142171 0.25014895411178018 0 0.50760557329222289 0.20700468884612061 0 0.54248833945060504 0.2520322959927106 0 0.49695729691142171 0.25014895411178018 0 0.5 0.29999999999999999 0 0.54248833945060504 0.2520322959927106 0 0.5 0.29999999999999999 0 0.54999999999999993 0.29999999999999999 0 0.52752007115234678 0.33170632466418198 0 0.5 0.29999999999999999 0 0.54999999999999993 0.29999999999999999 0 0.54248833945060504 0.2520322959927106 0 0.5 0.29999999999999999 0 0.54999999999999993 0.29999999999999999 0 0.54999999999999993 0.29999999999999999 0 0.54248833945060504 0.2520322959927106 0 0.5794309697024993 0.27124795968204829 0 0.59814117807200873 0.23398510860739519 0 0.54248833945060504 0.2520322959927106 0 0.5794309697024993 0.27124795968204829 0 0.54999999999999993 0.29999999999999999 0 0.59999999999999976 0.29999999999999999 0 0.54999999999999993 0.29999999999999999 0 0.5794309697024993 0.27124795968204829 0 0.59999999999999976 0.29999999999999999 0 0.59999999999999976 0.29999999999999999 0 0.6499999999999998 0.29999999999999999 0 0.5794309697024993 0.27124795968204829 0 0.59999999999999976 0.29999999999999999 0 0.62657463266645097 0.26524202571255862 0 0.59814117807200873 0.23398510860739519 0 0.5794309697024993 0.27124795968204829 0 0.62657463266645097 0.26524202571255862 0 0.61959173890754571 0.33832250091341232 0 0.56836770495988642 0.3523062350852913 0 0.6084546825910605 0.37989672713932537 0 0.59999999999999976 0.29999999999999999 0 0.61959173890754571 0.33832250091341232 0 0.6499999999999998 0.29999999999999999 0 0.59999999999999976 0.29999999999999999 0 0.61959173890754571 0.33832250091341232 0 0.56836770495988642 0.3523062350852913 0 0.54999999999999993 0.29999999999999999 0 0.59999999999999976 0.29999999999999999 0 0.56836770495988642 0.3523062350852913 0 0.56836770495988642 0.3523062350852913 0 0.52752007115234678 0.33170632466418198 0 0.52289427570932567 0.3932284363388488 0 0.54999999999999993 0.29999999999999999 0 0.56836770495988642 0.3523062350852913 0 0.52752007115234678 0.33170632466418198 0 0.49077833859261139 0.35229981449445641 0 0.5 0.29999999999999999 0 0.52752007115234678 0.33170632466418198 0 0.49077833859261139 0.35229981449445641 0 0.52752007115234678 0.33170632466418198 0 0.52289427570932567 0.3932284363388488 0 0.56836770495988642 0.3523062350852913 0 0.52289427570932567 0.3932284363388488 0 0.57744073070774993 0.41535148636609359 0 0.52289427570932567 0.3932284363388488 0 0.53823865529665704 0.45873898050322898 0 0.57744073070774993 0.41535148636609359 0 0.48858720058566618 0.43964267759203868 0 0.52289427570932567 0.3932284363388488 0 0.53823865529665704 0.45873898050322898 0 0.49102375406324739 0.49123754822244059 0 0.53330375813596242 0.50827942741749099 0 0.53823865529665704 0.45873898050322898 0 0.49102375406324739 0.49123754822244059 0 0.48858720058566618 0.43964267759203868 0 0.53823865529665704 0.45873898050322898 0 0.53330375813596242 0.50827942741749099 0 0.57611405284611883 0.50165903596042916 0 0.53823865529665704 0.45873898050322898 0 0.57611405284611883 0.50165903596042916 0 0.57975577671020095 0.46172033326338591 0 0.61547661924074692 0.48539576058873962 0 0.57611405284611883 0.50165903596042916 0 0.53823865529665704 0.45873898050322898 0 0.57975577671020095 0.46172033326338591 0 0.57975577671020095 0.46172033326338591 0 0.61209567303293111 0.44669033081290321 0 0.57744073070774993 0.41535148636609359 0 0.53823865529665704 0.45873898050322898 0 0.57975577671020095 0.46172033326338591 0 0.57744073070774993 0.41535148636609359 0 0.57975577671020095 0.46172033326338591 0 0.61209567303293111 0.44669033081290321 0 0.61547661924074692 0.48539576058873962 0 0.56836770495988642 0.3523062350852913 0 0.57744073070774993 0.41535148636609359 0 0.6084546825910605 0.37989672713932537 0 0.61209567303293111 0.44669033081290321 0 0.57744073070774993 0.41535148636609359 0 0.63912439215427275 0.41063340167983359 0 0.57744073070774993 0.41535148636609359 0 0.6084546825910605 0.37989672713932537 0 0.63912439215427275 0.41063340167983359 0 0.6084546825910605 0.37989672713932537 0 0.63912439215427275 0.41063340167983359 0 0.65481233915350323 0.35652751921065562 0 0.63912439215427275 0.41063340167983359 0 0.65178832218679827 0.45929119821019959 0 0.6879972333610942 0.43038561374960838 0 0.63912439215427275 0.41063340167983359 0 0.68128176404677243 0.38629093627004979 0 0.6879972333610942 0.43038561374960838 0 0.63912439215427275 0.41063340167983359 0 0.68128176404677243 0.38629093627004979 0 0.65481233915350323 0.35652751921065562 0 0.61547661924074692 0.48539576058873962 0 0.6541250972820879 0.49999999999999989 0 0.65178832218679827 0.45929119821019959 0 0.61209567303293111 0.44669033081290321 0 0.61547661924074692 0.48539576058873962 0 0.65178832218679827 0.45929119821019959 0 0.61209567303293111 0.44669033081290321 0 0.63912439215427275 0.41063340167983359 0 0.65178832218679827 0.45929119821019959 0 0.65178832218679827 0.45929119821019959 0 0.69385896817107129 0.48377516041410151 0 0.6879972333610942 0.43038561374960838 0 0.6541250972820879 0.49999999999999989 0 0.65178832218679827 0.45929119821019959 0 0.69385896817107129 0.48377516041410151 0 0.7152569930854884 0.5237994455134295 0 0.69385896817107129 0.48377516041410151 0 0.73947346780852752 0.49062440112282169 0 0.69385896817107129 0.48377516041410151 0 0.73483647259922602 0.44789725365921768 0 0.6879972333610942 0.43038561374960838 0 0.69385896817107129 0.48377516041410151 0 0.73483647259922602 0.44789725365921768 0 0.73947346780852752 0.49062440112282169 0 0.68128176404677243 0.38629093627004979 0 0.72622533758026719 0.40265885511101601 0 0.71508799138962864 0.36622814920737751 0 0.73483647259922602 0.44789725365921768 0 0.6879972333610942 0.43038561374960838 0 0.72622533758026719 0.40265885511101601 0 0.68128176404677243 0.38629093627004979 0 0.6879972333610942 0.43038561374960838 0 0.72622533758026719 0.40265885511101601 0 0.77354604466818633 0.40378688774472771 0 0.73483647259922602 0.44789725365921768 0 0.72622533758026719 0.40265885511101601 0 0.72622533758026719 0.40265885511101601 0 0.74764719760526988 0.3719647154012321 0 0.71508799138962864 0.36622814920737751 0 0.77354604466818633 0.40378688774472771 0 0.72622533758026719 0.40265885511101601 0 0.74764719760526988 0.3719647154012321 0 0.74764719760526988 0.3719647154012321 0 0.71508799138962864 0.36622814920737751 0 0.73090396928863699 0.33699297293167962 0 0.71508799138962864 0.36622814920737751 0 0.68887083591306764 0.33632058575757479 0 0.73090396928863699 0.33699297293167962 0 0.68128176404677243 0.38629093627004979 0 0.71508799138962864 0.36622814920737751 0 0.68887083591306764 0.33632058575757479 0 0.68887083591306764 0.33632058575757479 0 0.73090396928863699 0.33699297293167962 0 0.69999999999999984 0.29999999999999999 0 0.72500000000000064 0.2498161764706 0 0.74999999999999989 0.29999999999999999 0 0.69999999999999984 0.29999999999999999 0 0.74999999999999989 0.29999999999999999 0 0.69999999999999984 0.29999999999999999 0 0.73090396928863699 0.33699297293167962 0 0.74999999999999989 0.29999999999999999 0 0.69999999999999984 0.29999999999999999 0 0.77075983436335049 0.25919399014334171 0 0.72500000000000064 0.2498161764706 0 0.74999999999999989 0.29999999999999999 0 0.72500000000000064 0.2498161764706 0 0.69999999999999984 0.29999999999999999 0 0.67933712972090698 0.25920070958121938 0 0.69999999999999984 0.29999999999999999 0 0.67933712972090698 0.25920070958121938 0 0.6499999999999998 0.29999999999999999 0 0.68887083591306764 0.33632058575757479 0 0.69999999999999984 0.29999999999999999 0 0.6499999999999998 0.29999999999999999 0 0.69999999999999984 0.29999999999999999 0 0.6499999999999998 0.29999999999999999 0 0.67933712972090698 0.25920070958121938 0 0.62657463266645097 0.26524202571255862 0 0.6499999999999998 0.29999999999999999 0 0.65394964615507722 0.22666784374016369 0 0.67933712972090698 0.25920070958121938 0 0.62657463266645097 0.26524202571255862 0 0.59999999999999976 0.29999999999999999 0 0.62657463266645097 0.26524202571255862 0 0.6499999999999998 0.29999999999999999 0 0.61959173890754571 0.33832250091341232 0 0.6499999999999998 0.29999999999999999 0 0.65481233915350323 0.35652751921065562 0 0.61959173890754571 0.33832250091341232 0 0.6084546825910605 0.37989672713932537 0 0.65481233915350323 0.35652751921065562 0 0.68128176404677243 0.38629093627004979 0 0.68887083591306764 0.33632058575757479 0 0.65481233915350323 0.35652751921065562 0 0.68887083591306764 0.33632058575757479 0 0.6499999999999998 0.29999999999999999 0 0.65481233915350323 0.35652751921065562 0 
</DataArray>
</Points>
<Cells>
<DataArray type="UInt32" Name="connectivity" format="ascii">
0 1 2 3 4 5 6 7 8 9 10 11 12 13 14 15 16 17 18 19 20 21 22 23 24 25 26 27 28 29 30 31 32 33 34 35 36 37 38 39 40 41 42 43 44 45 46 47 48 49 50 51 52 53 54 55 56 57 58 59 60 61 62 63 64 65 66 67 68 69 70 71 72 73 74 75 76 77 78 79 80 81 82 83 84 85 86 87 88 89 90 91 92 93 94 95 96 97 98 99 100 101 102 103 104 105 106 107 108 109 110 111 112 113 114 115 116 117 118 119 120 121 122 123 124 125 126 127 128 129 130 131 132 133 134 135 136 137 138 139 140 141 142 143 144 145 146 147 148 149 150 151 152 153 154 155 156 157 158 159 160 161 162 163 164 165 166 167 168 169 170 171 172 173 174 175 176 177 178 179 180 181 182 183 184 185 186 187 188 189 190 191 192 193 194 195 196 197 198 199 200 201 202 203 204 205 206 207 208 209 210 211 212 213 214 215 216 217 218 219 220 221 222 223 224 225 226 227 228 229 230 231 232 233 234 235 236 237 238 239 240 241 242 243 244 245 246 247 248 249 250 251 252 253 254 255 256 257 258 259 260 261 262 263 264 265 266 267 268 269 270 271 272 273 274 275 276 277 278 279 280 281 282 283 284 285 286 287 288 289 290 291 292 293 294 295 296 297 298 299 300 301 302 303 304 305 306 307 308 309 310 311 312 313 314 315 316 317 318 319 320 321 322 323 324 325 326 327 328 329 330 331 332 333 334 335 336 337 338 339 340 341 342 343 344 345 346 347 348 349 350 351 352 353 354 355 356 357 358 359 360 361 362 363 364 365 366 367 368 369 370 371 372 373 374 375 376 377 378 379 380 381 382 383 384 385 386 387 388 389 390 391 392 393 394 395 396 397 398 399 400 401 402 403 404 405 406 407 408 409 410 411 412 413 414 415 416 417 418 419 420 421 422 423 424 425 426 427 428 429 430 431 432 433 434 435 436 437 438 439 440 441 442 443 444 445 446 447 448 449 450 451 452 453 454 455 456 457 458 459 460 461 462 463 464 465 466 467 468 469 470 471 472 473 474 475 476 477 478 479 480 481 482 483 484 485 486 487 488 489 490 491 492 493 494 495 496 497 498 499 500 501 502 503 504 505 506 507 508 509 510 511 512 513 514 515 516 517 518 519 520 521 522 523 524 525 526 527 528 529 530 531 532 533 534 535 536 537 538 539 540 541 542 543 544 545 546 547 548 549 550 551 552 553 554 555 556 557 558 559 560 561 562 563 564 565 566 567 568 569 570 571 572 573 574 575 576 577 578 579 580 581 582 583 584 585 586 587 588 589 590 591 592 593 594 595 596 597 598 599 600 601 602 603 604 605 606 607 608 609 610 611 612 613 614 615 616 617 618 619 620 621 622 623 624 625 626 627 628 629 630 631 632 633 634 635 636 637 638 639 640 641 642 643 644 645 646 647 648 649 650 651 652 653 654 655 656 657 658 659 660 661 662 663 664 665 666 667 668 669 670 671 672 673 674 675 676 677 678 679 680 681 682 683 684 685 686 687 688 689 690 691 692 693 694 695 696 697 698 699 700 701 702 703 704 705 706 707 708 709 710 711 712 713 714 715 716 717 718 719 720 721 722 723 724 725 726 727 728 729 730 731 732 733 734 735 736 737 738 739 740 741 742 743 744 745 746 747 748 749 750 751 752 753 754 755 756 757 758 759 760 761 762 763 764 765 766 767 768 769 770 771 772 773 774 775 776 777 778 779 780 781 782 783 784 785 786 787 788 789 790 791 792 793 794 795 796 797 798 799 800 801 802 803 804 805 806 807 808 809 810 811 812 813 814 815 816 817 818 819 820 821 822 823 824 825 826 827 828 829 830 831 832 833 834 835 836 837 838 839 840 841 842 843 844 845 846 847 848 849 850 851 852 853 854 855 856 857 858 859 860 861 862 863 864 865 866 867 868 869 870 871 872 873 874 875 876 877 878 879 880 881 882 883 884 885 886 887 888 889 890 891 892 893 894 895 896 897 898 899 900 901 902 903 904 905 906 907 908 909 910 911 912 913 914 915 916 917 918 919 920 921 922 923 924 925 926 927 928 929 930 931 932 933 934 935 936 937 938 939 940 941 942 943 944 945 946 947 948 949 950 951 952 953 954 955 956 957 958 959 960 961 962 963 964 965 966 967 968 969 970 971 972 973 974 975 976 977 978 979 980 981 982 983 984 985 986 987 988 989 990 991 992 993 994 995 996 997 998 999 1000 1001 1002 1003 1004 1005 1006 1007 1008 1009 1010 1011 1012 1013 1014 1015 1016 1017 1018 1019 1020 1021 1022 1023 1024 1025 1026 1027 1028 1029 1030 1031 1032 1033 1034 1035 1036 1037 1038 1039 1040 1041 1042 1043 1044 1045 1046 1047 1048 1049 1050 1051 1052 1053 1054 1055 1056 1057 1058 1059 1060 1061 1062 1063 1064 1065 1066 1067 1068 1069 1070 1071 1072 1073 1074 1075 1076 1077 1078 1079 1080 1081 1082 1083 1084 1085 1086 1087 1088 1089 1090 1091 1092 1093 1094 1095 1096 1097 1098 1099 1100 1101 1102 1103 1104 1105 1106 1107 1108 1109 1110 1111 1112 1113 1114 1115 1116 1117 1118 1119 1120 1121 1122 1123 1124 1125 1126 1127 1128 1129 1130 1131 1132 1133 1134 1135 1136 1137 1138 1139 1140 1141 1142 1143 1144 1145 1146 1147 1148 1149 1150 1151 1152 1153 1154 1155 1156 1157 1158 1159 1160 1161 1162 1163 1164 1165 1166 1167 1168 1169 1170 1171 1172 1173 1174 1175 1176 1177 1178 1179 1180 1181 1182 1183 1184 1185 1186 1187 1188 1189 1190 1191 1192 1193 1194 1195 1196 1197 1198 1199 1200 1201 1202 1203 1204 1205 1206 1207 1208 1209 1210 1211 1212 1213 1214 1215 1216 1217 1218 1219 1220 1221 1222 1223 1224 1225 1226 1227 1228 1229 1230 1231 1232 1233 1234 1235 1236 1237 1238 1239 1240 1241 1242 1243 1244 1245 1246 1247 1248 1249 1250 1251 1252 1253 1254 1255 1256 1257 1258 1259 1260 1261 1262 1263 1264 1265 1266 1267 1268 1269 1270 1271 1272 1273 1274 1275 1276 1277 1278 1279 1280 1281 1282 1283 1284 1285 1286 1287 1288 1289 1290 1291 1292 1293 1294 1295 1296 1297 1298 1299 1300 1301 1302 1303 1304 1305 1306 1307 1308 1309 1310 1311 1312 1313 1314 1315 1316 1317 1318 1319 1320 1321 1322 1323 1324 1325 1326 1327 1328 1329 1330 1331 1332 1333 1334 1335 1336 1337 1338 1339 1340 1341 1342 1343 1344 1345 1346 1347 1348 1349 1350 1351 1352 1353 1354 1355 1356 1357 1358 1359 1360 1361 1362 1363 1364 1365 1366 1367 1368 1369 1370 1371 1372 1373 1374 1375 1376 1377 1378 1379 1380 1381 1382 1383 1384 1385 1386 1387 1388 1389 1390 1391 1392 1393 1394 1395 1396 1397 1398 1399 1400 1401 1402 1403 1404 1405 1406 1407 1408 1409 1410 1411 1412 1413 1414 1415 1416 1417 1418 1419 1420 1421 1422 1423 1424 1425 1426 1427 1428 1429 1430 1431 1432 1433 1434 1435 1436 1437 1438 1439 1440 1441 1442 1443 1444 1445 1446 1447 1448 1449 1450 1451 1452 1453 1454 1455 1456 1457 1458 1459 1460 1461 1462 1463 1464 1465 1466 1467 1468 1469 1470 1471 1472 1473 1474 1475 1476 1477 1478 1479 1480 1481 1482 1483 1484 1485 1486 1487 1488 1489 1490 1491 1492 1493 1494 1495 1496 1497 1498 1499 1500 1501 1502 1503 1504 1505 1506 1507 1508 1509 1510 1511 1512 1513 1514 1515 1516 1517 1518 1519 1520 1521 1522 1523 1524 1525 1526 1527 1528 1529 1530 1531 1532 1533 1534 1535 1536 1537 1538 1539 1540 1541 1542 1543 1544 1545 1546 1547 1548 1549 1550 1551 1552 1553 1554 1555 1556 1557 1558 1559 1560 1561 1562 1563 1564 1565 1566 1567 1568 1569 1570 1571 1572 1573 1574 1575 1576 1577 1578 1579 1580 1581 1582 1583 1584 1585 1586 1587 1588 1589 1590 1591 1592 1593 1594 1595 1596 1597 1598 1599 1600 1601 1602 1603 1604 1605 1606 1607 1608 1609 1610 1611 1612 1613 1614 1615 1616 1617 1618 1619 1620 1621 1622 1623 1624 1625 1626 1627 1628 1629 1630 1631 1632 1633 1634 1635 1636 1637 1638 1639 1640 1641 1642 1643 1644 1645 1646 1647 1648 1649 1650 1651 1652 1653 1654 1655 1656 1657 1658 1659 1660 1661 1662 1663 1664 1665 1666 1667 1668 1669 1670 1671 1672 1673 1674 1675 1676 1677 1678 1679 1680 1681 1682 1683 1684 1685 1686 1687 1688 1689 1690 1691 1692 1693 1694 1695 1696 1697 1698 1699 1700 1701 1702 1703 1704 1705 1706 1707 1708 1709 1710 1711 1712 1713 1714 1715 1716 1717 1718 1719 1720 1721 1722 1723 1724 1725 1726 1727 1728 1729 1730 1731 1732 1733 1734 1735 1736 1737 1738 1739 1740 1741 1742 1743 1744 1745 1746 1747 1748 1749 1750 1751 1752 1753 1754 1755 1756 1757 1758 1759 1760 1761 1762 1763 1764 1765 1766 1767 1768 1769 1770 1771 1772 1773 1774 1775 1776 1777 1778 1779 1780 1781 1782 1783 1784 1785 1786 1787 1788 1789 1790 1791 1792 1793 1794 1795 1796 1797 1798 1799 1800 1801 1802 1803 1804 1805 1806 1807 1808 1809 1810 1811 1812 1813 1814 1815 1816 1817 1818 1819 1820 1821 1822 1823 1824 1825 1826 1827 1828 1829 1830 1831 1832 1833 1834 1835 1836 1837 1838 1839 1840 1841 1842 1843 1844 1845 1846 1847 1848 1849 1850 1851 1852 1853 1854 1855 1856 1857 1858 1859 1860 1861 1862 1863 1864 1865 1866 1867 1868 1869 1870 1871 1872 1873 1874 1875 1876 1877 1878 1879 1880 1881 1882 1883 1884 1885 1886 1887 1888 1889 1890 1891 1892 1893 1894 1895 1896 1897 1898 1899 1900 1901 1902 1903 1904 1905 1906 1907 1908 1909 1910 1911 1912 1913 1914 1915 1916 1917 1918 1919 1920 1921 1922 1923 1924 1925 1926 1927 1928 1929 1930 1931 1932 1933 1934 1935 1936 1937 1938 1939 1940 1941 1942 1943 1944 1945 1946 1947 1948 1949 1950 1951 1952 1953 1954 1955 1956 1957 1958 1959 1960 1961 1962 1963 1964 1965 1966 1967 1968 1969 1970 1971 1972 1973 1974 1975 1976 1977 1978 1979 1980 1981 1982 1983 1984 1985 1986 1987 1988 1989 1990 1991 1992 1993 1994 1995 1996 1997 1998 1999 2000 2001 2002 2003 2004 2005 2006 2007 2008 2009 2010 2011 2012 2013 2014 2015 2016 2017 2018 2019 2020 2021 2022 2023 2024 2025 2026 2027 2028 2029 2030 2031 2032 2033 2034 2035 2036 2037 2038 2039 2040 2041 2042 2043 2044 2045 2046 2047 2048 2049 2050 2051 2052 2053 2054 2055 2056 2057 2058 2059 2060 2061 2062 2063 2064 2065 2066 2067 2068 2069 2070 2071 2072 2073 2074 2075 2076 2077 2078 2079 2080 2081 2082 2083 2084 2085 2086 2087 2088 2089 2090 2091 2092 2093 2094 2095 2096 2097 2098 2099 2100 2101 2102 2103 2104 2105 2106 2107 2108 2109 2110 2111 2112 2113 2114 2115 2116 2117 2118 2119 2120 2121 2122 2123 2124 2125 2126 2127 2128 2129 2130 2131 2132 2133 2134 2135 2136 2137 2138 2139 2140 2141 2142 2143 2144 2145 2146 2147 2148 2149 2150 2151 2152 2153 2154 2155 2156 2157 2158 2159 2160 2161 2162 2163 2164 2165 2166 2167 2168 2169 2170 2171 2172 2173 2174 2175 2176 2177 2178 2179 2180 2181 2182 2183 2184 2185 2186 2187 2188 2189 2190 2191 2192 2193 2194 2195 2196 2197 2198 2199 2200 2201 2202 2203 2204 2205 2206 2207 2208 2209 2210 2211 2212 2213 2214 2215 2216 2217 2218 2219 2220 2221 2222 2223 2224 2225 2226 2227 2228 2229 2230 2231 2232 2233 2234 2235 2236 2237 2238 2239 2240 2241 2242 2243 2244 2245 2246 2247 2248 2249 2250 2251 2252 2253 2254 2255 2256 2257 2258 2259 2260 2261 2262 2263 2264 2265 2266 2267 2268 2269 2270 2271 2272 2273 2274 2275 2276 2277 2278 2279 2280 2281 2282 2283 2284 2285 2286 2287 2288 2289 2290 2291 2292 2293 2294 2295 2296 2297 2298 2299 2300 2301 2302 2303 2304 2305 2306 2307 2308 2309 2310 2311 2312 2313 2314 2315 2316 2317 2318 2319 2320 2321 2322 2323 2324 2325 2326 2327 2328 2329 2330 2331 2332 2333 2334 2335 2336 2337 2338 2339 2340 2341 2342 2343 2344 2345 2346 2347 2348 2349 2350 2351 2352 2353 2354 2355 2356 2357 2358 2359 2360 2361 2362 2363 2364 2365 2366 2367 2368 2369 2370 2371 2372 2373 2374 2375 2376 2377 2378 2379 2380 2381 2382 2383 2384 2385 2386 2387 2388 2389 2390 2391 2392 2393 2394 2395 2396 2397 2398 2399 2400 2401 2402 2403 2404 2405 2406 2407 2408 2409 2410 2411 2412 2413 2414 2415 2416 2417 2418 2419 2420 2421 2422 2423 2424 2425 2426 2427 2428 2429 2430 2431 2432 2433 2434 2435 2436 2437 2438 2439 2440 2441 2442 2443 2444 2445 2446 2447 2448 2449 2450 2451 2452 2453 2454 2455 2456 2457 2458 2459 2460 2461 2462 2463 2464 2465 2466 2467 2468 2469 2470 2471 2472 2473 2474 2475 2476 2477 2478 2479 2480 2481 2482 2483 2484 2485 2486 2487 2488 2489 2490 2491 2492 2493 2494 2495 2496 2497 2498 2499 2500 2501 2502 2503 2504 2505 2506 2507 2508 2509 2510 2511 2512 2513 2514 2515 2516 2517 2518 2519 2520 2521 2522 2523 2524 2525 2526 2527 2528 2529 2530 2531 2532 2533 2534 2535 2536 2537 2538 2539 2540 2541 2542 2543 2544 2545 2546 2547 2548 2549 2550 2551 2552 2553 2554 2555 2556 2557 2558 2559 2560 2561 2562 2563 2564 2565 2566 2567 2568 2569 2570 2571 2572 2573 2574 2575 2576 2577 2578 2579 2580 2581 2582 2583 2584 2585 2586 2587 2588 2589 2590 2591 2592 2593 2594 2595 2596 2597 2598 2599 2600 2601 2602 2603 2604 2605 2606 2607 2608 2609 2610 2611 2612 2613 2614 2615 2616 2617 2618 2619 2620 2621 2622 2623 2624 2625 2626 2627 2628 2629 2630 2631 2632 2633 2634 2635 2636 2637 2638 2639 2640 2641 2642 2643 2644 2645 2646 2647 2648 2649 2650 2651 2652 2653 2654 2655 2656 2657 2658 2659 2660 2661 2662 2663 2664 2665 2666 2667 2668 2669 2670 2671 2672 2673 2674 2675 2676 2677 2678 2679 2680 2681 2682 2683 2684 2685 2686 2687 2688 2689 2690 2691 2692 2693 2694 2695 2696 2697 2698 2699 2700 2701 2702 2703 2704 2705 2706 2707 2708 2709 2710 2711 2712 2713 2714 2715 2716 2717 2718 2719 2720 2721 2722 2723 2724 2725 2726 2727 2728 2729 2730 2731 2732 2733 2734 2735 2736 2737 2738 2739 2740 2741 2742 2743 2744 2745 2746 2747 2748 2749 2750 2751 2752 2753 2754 2755 2756 2757 2758 2759 2760 2761 2762 2763 2764 2765 2766 2767 2768 2769 2770 2771 2772 2773 2774 2775 2776 2777 2778 2779 2780 2781 2782 2783 2784 2785 2786 2787 2788 2789 2790 2791 2792 2793 2794 2795 2796 2797 2798 2799 2800 2801 2802 2803 2804 2805 2806 2807 2808 2809 2810 2811 2812 2813 2814 2815 2816 2817 2818 2819 2820 2821 2822 2823 2824 2825 2826 2827 2828 2829 2830 2831 2832 2833 2834 2835 2836 2837 2838 2839 2840 2841 2842 2843 2844 2845 2846 2847 2848 2849 2850 2851 2852 2853 2854 2855 2856 2857 2858 2859 2860 2861 2862 2863 2864 2865 2866 2867 2868 2869 2870 2871 2872 2873 2874 2875 2876 2877 2878 2879 2880 2881 2882 2883 2884 2885 2886 2887 2888 2889 2890 2891 2892 2893 2894 2895 2896 2897 2898 2899 2900 2901 2902 2903 2904 2905 2906 2907 2908 2909 2910 2911 2912 2913 2914 2915 2916 2917 2918 2919 2920 2921 2922 2923 2924 2925 2926 2927 2928 2929 2930 2931 2932 2933 2934 2935 2936 2937 2938 2939 2940 2941 2942 2943 2944 2945 2946 2947 2948 2949 2950 2951 2952 2953 2954 2955 2956 2957 2958 2959 2960 2961 2962 2963 2964 2965 2966 2967 2968 2969 2970 2971 2972 2973 2974 2975 2976 2977 2978 2979 2980 2981 2982 2983 2984 2985 2986 2987 2988 2989 2990 2991 2992 2993 2994 2995 2996 2997 2998 2999 3000 3001 3002 3003 3004 3005 3006 3007 3008 3009 3010 3011 3012 3013 3014 3015 3016 3017 3018 3019 3020 3021 3022 3023 3024 3025 3026 3027 3028 3029 3030 3031 3032 3033 3034 3035 3036 3037 3038 3039 3040 3041 3042 3043 3044 3045 3046 3047 3048 3049 3050 3051 3052 3053 3054 3055 3056 3057 3058 3059 3060 3061 3062 3063 3064 3065 3066 3067 3068 3069 3070 3071 3072 3073 3074 3075 3076 3077 3078 3079 3080 3081 3082 3083 3084 3085 3086 3087 3088 3089 3090 3091 3092 3093 3094 3095 3096 3097 3098 3099 3100 3101 3102 3103 3104 3105 3106 3107 3108 3109 3110 3111 3112 3113 3114 3115 3116 3117 3118 3119 3120 3121 3122 3123 3124 3125 3126 3127 3128 3129 3130 3131 3132 3133 3134 3135 3136 3137 3138 3139 3140 3141 
</DataArray>
<DataArray type="UInt32" Name="offsets" format="ascii">
3 6 9 12 15 18 21 24 27 30 33 36 39 42 45 48 51 54 57 60 63 66 69 72 75 78 81 84 87 90 93 96 99 102 105 108 111 114 117 120 123 126 129 132 135 138 141 144 147 150 153 156 159 162 165 168 171 174 177 180 183 186 189 192 195 198 201 204 207 210 213 216 219 222 225 228 231 234 237 240 243 246 249 252 255 258 261 264 267 270 273 276 279 282 285 288 291 294 297 300 303 306 309 312 315 318 321 324 327 330 333 336 339 342 345 348 351 354 357 360 363 366 369 372 375 378 381 384 387 390 393 396 399 402 405 408 411 414 417 420 423 426 429 432 435 438 441 444 447 450 453 456 459 462 465 468 471 474 477 480 483 486 489 492 495 498 501 504 507 510 513 516 519 522 525 528 531 534 537 540 543 546 549 552 555 558 561 564 567 570 573 576 579 582 585 588 591 594 597 600 603 606 609 612 615 618 621 624 627 630 633 636 639 642 645 648 651 654 657 660 663 666 669 672 675 678 681 684 687 690 693 696 699 702 705 708 711 714 717 720 723 726 729 732 735 738 741 744 747 750 753 756 759 762 765 768 771 774 777 780 783 786 789 792 795 798 801 804 807 810 813 816 819 822 825 828 831 834 837 840 843 846 849 852 855 858 861 864 867 870 873 876 879 882 885 888 891 894 897 900 903 906 909 912 915 918 921 924 927 930 933 936 939 942 945 948 951 954 957 960 963 966 969 972 975 978 981 984 987 990 993 996 999 1002 1005 1008 1011 1014 1017 1020 1023 1026 1029 1032 1035 1038 1041 1044 1047 1050 1053 1056 1059 1062 1065 1068 1071 1074 1077 1080 1083 1086 1089 1092 1095 1098 1101 1104 1107 1110 1113 1116 1119 1122 1125 1128 1131 1134 1137 1140 1143 1146 1149 1152 1155 1158 1161 1164 1167 1170 1173 1176 1179 1182 1185 1188 1191 1194 1197 1200 1203 1206 1209 1212 1215 1218 1221 1224 1227 1230 1233 1236 1239 1242 1245 1248 1251 1254 1257 1260 1263 1266 1269 1272 1275 1278 1281 1284 1287 1290 1293 1296 1299 1302 1305 1308 1311 1314 1317 1320 1323 1326 1329 1332 1335 1338 1341 1344 1347 1350 1353 1356 1359 1362 1365 1368 1371 1374 1377 1380 1383 1386 1389 1392 1395 1398 1401 1404 1407 1410 1413 1416 1419 1422 1425 1428 1431 1434 1437 1440 1443 1446 1449 1452 1455 1458 1461 1464 1467 1470 1473 1476 1479 1482 1485 1488 1491 1494 1497 1500 1503 1506 1509 1512 1515 1518 1521 1524 1527 1530 1533 1536 1539 1542 1545 1548 1551 1554 1557 1560 1563 1566 1569 1572 1575 1578 1581 1584 1587 1590 1593 1596 1599 1602 1605 1608 1611 1614 1616 1619 1622 1624 1627 1630 1632 1635 1638 1641 1644 1647 1650 1653 1656 1659 1662 1665 1668 1671 1673 1676 1679 1682 1685 1688 1690 1693 1696 1699 1702 1705 1708 1711 1714 1717 1720 1723 1726 1729 1732 1735 1738 1741 1744 1747 1750 1753 1756 1759 1762 1765 1768 1771 1774 1777 1780 1783 1786 1789 1792 1795 1798 1801 1804 1807 1810 1813 1816 1819 1822 1825 1828 1831 1834 1837 1840 1843 1846 1849 1852 1855 1858 1861 1864 1867 1870 1873 1876 1879 1882 1885 1888 1891 1894 1897 1900 1903 1906 1909 1912 1915 1918 1921 1924 1927 1930 1933 1936 1939 1942 1945 1948 1951 1954 1957 1960 1963 1966 1969 1972 1975 1978 1981 1984 1987 1990 1993 1996 1999 2002 2005 2008 2011 2014 2017 2020 2023 2026 2029 2032 2035 2038 2041 2044 2047 2050 2053 2056 2059 2062 2065 2068 2071 2074 2077 2080 2083 2086 2089 2092 2095 2098 2101 2104 2107 2110 2113 2116 2119 2122 2125 2128 2131 2134 2137 2140 2143 2146 2149 2152 2155 2158 2161 2164 2167 2170 2173 2176 2179 2182 2185 2188 2191 2194 2196 2199 2202 2205 2207 2210 2213 2215 2218 2221 2224 2227 2230 2233 2236 2239 2242 2245 2248 2250 2253 2256 2259 2262 2264 2267 2270 2273 2276 2279 2282 2285 2288 2291 2294 2297 2300 2303 2306 2309 2312 2315 2318 2321 2324 2327 2330 2333 2336 2339 2342 2345 2348 2351 2354 2357 2360 2363 2366 2369 2372 2375 2378 2381 2384 2387 2390 2393 2396 2399 2402 2405 2408 2411 2414 2417 2420 2423 2426 2429 2432 2435 2438 2440 2443 2446 2449 2452 2455 2458 2461 2464 2467 2470 2473 2476 2479 2482 2484 2487 2490 2492 2495 2497 2500 2503 2506 2509 2512 2515 2518 2521 2524 2527 2530 2533 2536 2538 2541 2544 2547 2550 2553 2556 2559 2562 2565 2568 2571 2574 2577 2580 2583 2586 2589 2592 2595 2598 2601 2604 2607 2610 2613 2616 2619 2622 2625 2628 2631 2634 2637 2640 2643 2646 2649 2652 2655 2658 2661 2664 2667 2670 2673 2676 2679 2682 2685 2688 2691 2694 2697 2700 2703 2706 2709 2712 2715 2718 2721 2724 2727 2730 2733 2736 2739 2742 2745 2748 2751 2754 2757 2760 2763 2766 2769 2772 2775 2778 2781 2784 2787 2790 2793 2796 2799 2802 2805 2808 2811 2814 2817 2820 2823 2826 2829 2832 2835 2838 2841 2844 2847 2850 2853 2856 2859 2862 2865 2868 2871 2874 2877 2880 2883 2886 2889 2892 2895 2898 2901 2904 2907 2910 2913 2916 2919 2922 2925 2928 2931 2934 2937 2940 2943 2946 2948 2951 2954 2956 2959 2961 2964 2967 2970 2973 2976 2979 2982 2985 2988 2991 2994 2997 3000 3003 3006 3009 3012 3015 3018 3021 3024 3027 3030 3033 3036 3039 3042 3045 3048 3051 3054 3057 3060 3063 3066 3069 3072 3075 3078 3081 3084 3087 3090 3093 3096 3099 3102 3104 3107 3110 3113 3116 3119 3121 3124 3127 3130 3133 3136 3139 3142 
</DataArray>
<DataArray type="UInt32" Name="types" format="ascii">
5 5 5 5 5 5 5 5 5 5 5 5 5 5 5 5 5 5 5 5 5 5 5 5 5 5 5 5 5 5 5 5 5 5 5 5 5 5 5 5 5 5 5 5 5 5 5 5 5 5 5 5 5 5 5 5 5 5 5 5 5 5 5 5 5 5 5 5 5 5 5 5 5 5 5 5 5 5 5 5 5 5 5 5 5 5 5 5 5 5 5 5 5 5 5 5 5 5 5 5 5 5 5 5 5 5 5 5 5 5 5 5 5 5 5 5 5 5 5 5 5 5 5 5 5 5 5 5 5 5 5 5 5 5 5 5 5 5 5 5 5 5 5 5 5 5 5 5 5 5 5 5 5 5 5 5 5 5 5 5 5 5 5 5 5 5 5 5 5 5 5 5 5 5 5 5 5 5 5 5 5 5 5 5 5 5 5 5 5 5 5 5 5 5 5 5 5 5 5 5 5 5 5 5 5 5 5 5 5 5 5 5 5 5 5 5 5 5 5 5 5 5 5 5 5 5 5 5 5 5 5 5 5 5 5 5 5 5 5 5 5 5 5 5 5 5 5 5 5 5 5 5 5 5 5 5 5 5 5 5 5 5 5 5 5 5 5 5 5 5 5 5 5 5 5 5 5 5 5 5 5 5 5 5 5 5 5 5 5 5 5 5 5 5 5 5 5 5 5 5 5 5 5 5 5 5 5 5 5 5 5 5 5 5 5 5 5 5 5 5 5 5 5 5 5 5 5 5 5 5 5 5 5 5 5 5 5 5 5 5 5 5 5 5 5 5 5 5 5 5 5 5 5 5 5 5 5 5 5 5 5 5 5 5 5 5 5 5 5 5 5 5 5 5 5 5 5 5 5 5 5 5 5 5 5 5 5 5 5 5 5 5 5 5 5 5 5 5 5 5 5 5 5 5 5 5 5 5 5 5 5 5 5 5 5 5 5 5 5 5 5 5 5 5 5 5 5 5 5 5 5 5 5 5 5 5 5 5 5 5 5 5 5 5 5 5 5 5 5 5 5 5 5 5 5 5 5 5 5 5 5 5 5 5 5 5 5 5 5 5 5 5 5 5 5 5 5 5 5 5 5 5 5 5 5 5 5 5 5 5 5 5 5 5 5 5 5 5 5 5 5 5 5 5 5 5 5 5 5 5 5 5 5 5 5 5 5 5 5 5 5 5 5 5 5 5 5 5 5 5 5 5 5 5 5 5 5 5 3 5 5 3 5 5 3 5 5 5 5 5 5 5 5 5 5 5 5 5 3 5 5 5 5 5 3 5 5 5 5 5 5 5 5 5 5 5 5 5 5 5 5 5 5 5 5 5 5 5 5 5 5 5 5 5 5 5 5 5 5 5 5 5 5 5 5 5 5 5 5 5 5 5 5 5 5 5 5 5 5 5 5 5 5 5 5 5 5 5 5 5 5 5 5 5 5 5 5 5 5 5 5 5 5 5 5 5 5 5 5 5 5 5 5 5 5 5 5 5 5 5 5 5 5 5 5 5 5 5 5 5 5 5 5 5 5 5 5 5 5 5 5 5 5 5 5 5 5 5 5 5 5 5 5 5 5 5 5 5 5 5 5 5 5 5 5 5 5 5 5 5 5 5 5 5 5 5 5 5 5 5 5 5 5 5 5 5 5 5 5 5 5 5 5 3 5 5 5 3 5 5 3 5 5 5 5 5 5 5 5 5 5 5 3 5 5 5 5 3 5 5 5 5 5 5 5 5 5 5 5 5 5 5 5 5 5 5 5 5 5 5 5 5 5 5 5 5 5 5 5 5 5 5 5 5 5 5 5 5 5 5 5 5 5 5 5 5 5 5 5 5 5 5 5 5 5 5 3 5 5 5 5 5 5 5 5 5 5 5 5 5 5 3 5 5 3 5 3 5 5 5 5 5 5 5 5 5 5 5 5 5 3 5 5 5 5 5 5 5 5 5 5 5 5 5 5 5 5 5 5 5 5 5 5 5 5 5 5 5 5 5 5 5 5 5 5 5 5 5 5 5 5 5 5 5 5 5 5 5 5 5 5 5 5 5 5 5 5 5 5 5 5 5 5 5 5 5 5 5 5 5 5 5 5 5 5 5 5 5 5 5 5 5 5 5 5 5 5 5 5 5 5 5 5 5 5 5 5 5 5 5 5 5 5 5 5 5 5 5 5 5 5 5 5 5 5 5 5 5 5 5 5 5 5 5 5 5 5 5 5 5 5 5 5 5 5 5 5 3 5 5 3 5 3 5 5 5 5 5 5 5 5 5 5 5 5 5 5 5 5 5 5 5 5 5 5 5 5 5 5 5 5 5 5 5 5 5 5 5 5 5 5 5 5 5 5 5 5 5 5 5 3 5 5 5 5 5 3 5 5 5 5 5 5 5 
</DataArray>
</Cells>
<PointData Scalars="" Vectors="displacement," Tensors="">
<DataArray type="Float64" Name="displacement" NumberOfComponents="3" format="ascii">
-7.265533942993158e-07 1.081204731532252e-07 0 -1.4907226115441754e-09 -6.1525167800736084e-10 0 -1.6459442534179342e-06 -1.2950742053530411e-07 0 -7.265533942993158e-07 1.081204731532252e-07 0 -1.4907226115441754e-09 -6.1525167800736084e-10 0 -1.2477078626269358e-09 3.9444512098027669e-10 0 -7.265533942993158e-07 1.081204731532252e-07 0 -1.6459442534179342e-06 -1.2950742053530411e-07 0 -1.5838058742437404e-06 5.0599960207478511e-07 0 -7.265533942993158e-07 1.081204731532252e-07 0 -1.5838058742437404e-06 5.0599960207478511e-07 0 -1.2477078626269358e-09 3.9444512098027669e-10 0 -1.2477078626269358e-09 3.9444512098027669e-10 0 -1.2037027609770202e-09 1.8598890700029473e-10 0 -9.8750403932531296e-07 8.0672379253708099e-07 0 -1.2037027609770202e-09 1.8598890700029473e-10 0 -9.8750403932531296e-07 8.0672379253708099e-07 0 -6.1554937522830135e-10 6.8429177989914951e-10 0 -1.5838058742437404e-06 5.0599960207478511e-07 0 -9.8750403932531296e-07 8.0672379253708099e-07 0 -2.1609244742587897e-06 1.1474510966995667e-06 0 -1.5838058742437404e-06 5.0599960207478511e-07 0 -1.2477078626269358e-09 3.9444512098027669e-10 0 -9.8750403932531296e-07 8.0672379253708099e-07 0 -9.8750403932531296e-07 8.0672379253708099e-07 0 -2.1609244742587897e-06 1.1474510966995667e-06 0 -1.1095877636981359e-06 1.3363521637740732e-06 0 -2.1609244742587897e-06 1.1474510966995667e-06 0 -1.1095877636981359e-06 1.3363521637740732e-06 0 -2.1556352469443192e-06 1.6127240041970104e-06 0 -2.1609244742587897e-06 1.1474510966995667e-06 0 -3.3175730666674125e-06 1.3903815170825059e-06 0 -2.1556352469443192e-06 1.6127240041970104e-06 0 -3.3175730666674125e-06 1.3903815170825059e-06 0 -2.1556352469443192e-06 1.6127240041970104e-06 0 -2.5671842200731427e-06 1.7956292200776491e-06 0 -3.3175730666674125e-06 1.3903815170825059e-06 0 -3.4028322926669356e-06 7.4905472796134782e-07 0 -4.8002088897056646e-06 9.6288414792921813e-07 0 -2.1609244742587897e-06 1.1474510966995667e-06 0 -3.3175730666674125e-06 1.3903815170825059e-06 0 -3.4028322926669356e-06 7.4905472796134782e-07 0 -3.4028322926669356e-06 7.4905472796134782e-07 0 -3.6018721584195483e-06 1.1331944967165336e-07 0 -5.9557300866937518e-06 8.3563760414800646e-08 0 -1.6459442534179342e-06 -1.2950742053530411e-07 0 -1.5838058742437404e-06 5.0599960207478511e-07 0 -3.6018721584195483e-06 1.1331944967165336e-07 0 -1.5838058742437404e-06 5.0599960207478511e-07 0 -3.4028322926669356e-06 7.4905472796134782e-07 0 -3.6018721584195483e-06 1.1331944967165336e-07 0 -1.5838058742437404e-06 5.0599960207478511e-07 0 -2.1609244742587897e-06 1.1474510966995667e-06 0 -3.4028322926669356e-06 7.4905472796134782e-07 0 -1.2210986206782066e-07 1.1283174211517191e-06 0 -3.6266294125274496e-10 4.5461499481841531e-10 0 1.9167869864993153e-11 5.6877678333073456e-10 0 -1.2210986206782066e-07 1.1283174211517191e-06 0 -3.6266294125274496e-10 4.5461499481841531e-10 0 -3.7494064032280758e-07 9.5006006152049855e-07 0 -1.2210986206782066e-07 1.1283174211517191e-06 0 -3.7494064032280758e-07 9.5006006152049855e-07 0 -6.3618688437269525e-07 1.7099251175996494e-06 0 -3.7494064032280758e-07 9.5006006152049855e-07 0 -6.1554937522830135e-10 6.8429177989914951e-10 0 -1.1095877636981359e-06 1.3363521637740732e-06 0 -9.8750403932531296e-07 8.0672379253708099e-07 0 -6.1554937522830135e-10 6.8429177989914951e-10 0 -1.1095877636981359e-06 1.3363521637740732e-06 0 -3.7494064032280758e-07 9.5006006152049855e-07 0 -1.1095877636981359e-06 1.3363521637740732e-06 0 -6.3618688437269525e-07 1.7099251175996494e-06 0 -3.6266294125274496e-10 4.5461499481841531e-10 0 -3.7494064032280758e-07 9.5006006152049855e-07 0 -6.1554937522830135e-10 6.8429177989914951e-10 0 -1.1095877636981359e-06 1.3363521637740732e-06 0 -2.1556352469443192e-06 1.6127240041970104e-06 0 -1.4980178425458837e-06 1.8212229140920201e-06 0 -2.1556352469443192e-06 1.6127240041970104e-06 0 -1.4980178425458837e-06 1.8212229140920201e-06 0 -2.5671842200731427e-06 1.7956292200776491e-06 0 -1.1095877636981359e-06 1.3363521637740732e-06 0 -1.4980178425458837e-06 1.8212229140920201e-06 0 -6.3618688437269525e-07 1.7099251175996494e-06 0 -6.3618688437269525e-07 1.7099251175996494e-06 0 4.8453091742683415e-08 1.8676366920972256e-06 0 -9.3748736569615566e-07 2.0383759108916888e-06 0 -1.4980178425458837e-06 1.8212229140920201e-06 0 -6.3618688437269525e-07 1.7099251175996494e-06 0 -9.3748736569615566e-07 2.0383759108916888e-06 0 -1.2210986206782066e-07 1.1283174211517191e-06 0 -6.3618688437269525e-07 1.7099251175996494e-06 0 4.8453091742683415e-08 1.8676366920972256e-06 0 -1.2210986206782066e-07 1.1283174211517191e-06 0 4.8453091742683415e-08 1.8676366920972256e-06 0 2.3132636130253712e-07 1.2093148672604472e-06 0 4.8453091742683415e-08 1.8676366920972256e-06 0 3.9684034148327325e-08 2.0122157101440498e-06 0 -9.3748736569615566e-07 2.0383759108916888e-06 0 -1.7592811696370431e-07 1.8612328013959728e-06 0 3.9684034148327325e-08 2.0122157101440498e-06 0 -9.3748736569615566e-07 2.0383759108916888e-06 0 -1.7592811696370431e-07 1.8612328013959728e-06 0 -9.3748736569615566e-07 2.0383759108916888e-06 0 -1.7898193063214413e-06 1.7637050634202325e-06 0 -1.7898193063214413e-06 1.7637050634202325e-06 0 -2.5671842200731427e-06 1.7956292200776491e-06 0 -3.561147353026874e-06 1.4492590764279444e-06 0 -1.4980178425458837e-06 1.8212229140920201e-06 0 -9.3748736569615566e-07 2.0383759108916888e-06 0 -2.5671842200731427e-06 1.7956292200776491e-06 0 -9.3748736569615566e-07 2.0383759108916888e-06 0 -1.7898193063214413e-06 1.7637050634202325e-06 0 -2.5671842200731427e-06 1.7956292200776491e-06 0 -2.5671842200731427e-06 1.7956292200776491e-06 0 -3.561147353026874e-06 1.4492590764279444e-06 0 -4.2110964878844776e-06 1.3515502794610983e-06 0 -3.561147353026874e-06 1.4492590764279444e-06 0 -5.0599790060259888e-06 6.1953143061364661e-07 0 -2.4901059731571505e-06 1.1743781268873778e-06 0 -5.0599790060259888e-06 6.1953143061364661e-07 0 -2.4901059731571505e-06 1.1743781268873778e-06 0 -4.0749532324854021e-06 1.255409623721377e-07 0 -2.4901059731571505e-06 1.1743781268873778e-06 0 -4.0749532324854021e-06 1.255409623721377e-07 0 -2.2517153310023363e-06 6.4185232447608708e-08 0 -1.7898193063214413e-06 1.7637050634202325e-06 0 -3.561147353026874e-06 1.4492590764279444e-06 0 -2.4901059731571505e-06 1.1743781268873778e-06 0 -1.7592811696370431e-07 1.8612328013959728e-06 0 -1.7898193063214413e-06 1.7637050634202325e-06 0 -6.9685388317217189e-07 1.2089995512057898e-06 0 -1.7898193063214413e-06 1.7637050634202325e-06 0 -2.4901059731571505e-06 1.1743781268873778e-06 0 -6.9685388317217189e-07 1.2089995512057898e-06 0 -2.4901059731571505e-06 1.1743781268873778e-06 0 -6.9685388317217189e-07 1.2089995512057898e-06 0 -2.2517153310023363e-06 6.4185232447608708e-08 0 -6.9685388317217189e-07 1.2089995512057898e-06 0 9.6206746799355536e-07 5.5087938591079532e-07 0 1.0772436416430103e-06 1.4605415101192136e-06 0 -1.7592811696370431e-07 1.8612328013959728e-06 0 -6.9685388317217189e-07 1.2089995512057898e-06 0 1.0772436416430103e-06 1.4605415101192136e-06 0 -6.9127659884021924e-06 3.3851183540084888e-07 0 -5.9557300866937518e-06 8.3563760414800646e-08 0 -4.8002088897056646e-06 9.6288414792921813e-07 0 -6.9127659884021924e-06 3.3851183540084888e-07 0 -4.8002088897056646e-06 9.6288414792921813e-07 0 -6.0275355696678271e-06 7.8178242907112597e-07 0 -6.9127659884021924e-06 3.3851183540084888e-07 0 -5.9557300866937518e-06 8.3563760414800646e-08 0 -8.7217886133686603e-06 -5.7084763373047507e-07 0 -3.4028322926669356e-06 7.4905472796134782e-07 0 -5.9557300866937518e-06 8.3563760414800646e-08 0 -4.8002088897056646e-06 9.6288414792921813e-07 0 -3.3175730666674125e-06 1.3903815170825059e-06 0 -4.8002088897056646e-06 9.6288414792921813e-07 0 -4.2110964878844776e-06 1.3515502794610983e-06 0 -3.3175730666674125e-06 1.3903815170825059e-06 0 -2.5671842200731427e-06 1.7956292200776491e-06 0 -4.2110964878844776e-06 1.3515502794610983e-06 0 -3.561147353026874e-06 1.4492590764279444e-06 0 -4.2110964878844776e-06 1.3515502794610983e-06 0 -6.0275355696678271e-06 7.8178242907112597e-07 0 -4.8002088897056646e-06 9.6288414792921813e-07 0 -4.2110964878844776e-06 1.3515502794610983e-06 0 -6.0275355696678271e-06 7.8178242907112597e-07 0 -3.561147353026874e-06 1.4492590764279444e-06 0 -5.0599790060259888e-06 6.1953143061364661e-07 0 -6.0275355696678271e-06 7.8178242907112597e-07 0 -5.0599790060259888e-06 6.1953143061364661e-07 0 -6.0275355696678271e-06 7.8178242907112597e-07 0 -7.4312411142442368e-06 -1.3053757857918986e-07 0 -5.0599790060259888e-06 6.1953143061364661e-07 0 -7.4312411142442368e-06 -1.3053757857918986e-07 0 -6.8882525980921072e-06 -8.4053089690996092e-07 0 -6.0275355696678271e-06 7.8178242907112597e-07 0 -7.4312411142442368e-06 -1.3053757857918986e-07 0 -8.6661248649846778e-06 -3.3588657125055301e-07 0 -7.4312411142442368e-06 -1.3053757857918986e-07 0 -8.6661248649846778e-06 -3.3588657125055301e-07 0 -1.0372715443244019e-05 -1.6355456168715867e-06 0 -6.9127659884021924e-06 3.3851183540084888e-07 0 -6.0275355696678271e-06 7.8178242907112597e-07 0 -8.6661248649846778e-06 -3.3588657125055301e-07 0 -6.9127659884021924e-06 3.3851183540084888e-07 0 -8.6661248649846778e-06 -3.3588657125055301e-07 0 -8.7217886133686603e-06 -5.7084763373047507e-07 0 -8.6661248649846778e-06 -3.3588657125055301e-07 0 -8.7217886133686603e-06 -5.7084763373047507e-07 0 -1.1839770811533403e-05 -1.8924775469323141e-06 0 -1.1839770811533403e-05 -1.8924775469323141e-06 0 -1.0372715443244019e-05 -1.6355456168715867e-06 0 -1.5133397229184383e-05 -4.0064853109355097e-06 0 -8.6661248649846778e-06 -3.3588657125055301e-07 0 -1.1839770811533403e-05 -1.8924775469323141e-06 0 -1.0372715443244019e-05 -1.6355456168715867e-06 0 -1.0372715443244019e-05 -1.6355456168715867e-06 0 -1.5133397229184383e-05 -4.0064853109355097e-06 0 -1.3939539182514075e-05 -4.3343144154072014e-06 0 -1.5133397229184383e-05 -4.0064853109355097e-06 0 -1.3939539182514075e-05 -4.3343144154072014e-06 0 -1.8939276715580862e-05 -7.0850730804995528e-06 0 -1.3939539182514075e-05 -4.3343144154072014e-06 0 -1.6931477569432602e-05 -7.0644688864999501e-06 0 -1.2144295847787762e-05 -5.4350880415540264e-06 0 -1.6931477569432602e-05 -7.0644688864999501e-06 0 -1.2144295847787762e-05 -5.4350880415540264e-06 0 -1.6958661597226655e-05 -9.5867684316442666e-06 0 -1.3939539182514075e-05 -4.3343144154072014e-06 0 -1.6931477569432602e-05 -7.0644688864999501e-06 0 -1.8939276715580862e-05 -7.0850730804995528e-06 0 -1.6931477569432602e-05 -7.0644688864999501e-06 0 -1.8939276715580862e-05 -7.0850730804995528e-06 0 -2.3124357231033841e-05 -1.1287168548250937e-05 0 -1.2144295847787762e-05 -5.4350880415540264e-06 0 -7.4896143844652006e-06 -5.3589500494802247e-06 0 -1.1277197391448553e-05 -8.7590517438187248e-06 0 -1.2144295847787762e-05 -5.4350880415540264e-06 0 -7.9635839567198511e-06 -2.9823519734358562e-06 0 -7.4896143844652006e-06 -5.3589500494802247e-06 0 -1.3939539182514075e-05 -4.3343144154072014e-06 0 -1.2144295847787762e-05 -5.4350880415540264e-06 0 -1.0267050476818141e-05 -2.8231784746239452e-06 0 -1.2144295847787762e-05 -5.4350880415540264e-06 0 -7.9635839567198511e-06 -2.9823519734358562e-06 0 -1.0267050476818141e-05 -2.8231784746239452e-06 0 -7.9635839567198511e-06 -2.9823519734358562e-06 0 -1.0267050476818141e-05 -2.8231784746239452e-06 0 -6.8882525980921072e-06 -8.4053089690996092e-07 0 -1.0372715443244019e-05 -1.6355456168715867e-06 0 -1.3939539182514075e-05 -4.3343144154072014e-06 0 -1.0267050476818141e-05 -2.8231784746239452e-06 0 -1.0372715443244019e-05 -1.6355456168715867e-06 0 -1.0267050476818141e-05 -2.8231784746239452e-06 0 -6.8882525980921072e-06 -8.4053089690996092e-07 0 -7.4312411142442368e-06 -1.3053757857918986e-07 0 -1.0372715443244019e-05 -1.6355456168715867e-06 0 -6.8882525980921072e-06 -8.4053089690996092e-07 0 -5.0599790060259888e-06 6.1953143061364661e-07 0 -6.8882525980921072e-06 -8.4053089690996092e-07 0 -4.0749532324854021e-06 1.255409623721377e-07 0 -6.8882525980921072e-06 -8.4053089690996092e-07 0 -4.0749532324854021e-06 1.255409623721377e-07 0 -4.6841021522792159e-06 -1.2398066405089043e-06 0 -4.0749532324854021e-06 1.255409623721377e-07 0 -4.6841021522792159e-06 -1.2398066405089043e-06 0 -2.2517153310023363e-06 6.4185232447608708e-08 0 -4.6841021522792159e-06 -1.2398066405089043e-06 0 -2.2457124614642665e-06 -1.8544310482837208e-06 0 -4.9934961326093501e-06 -3.0847551169609097e-06 0 -4.6841021522792159e-06 -1.2398066405089043e-06 0 -2.2517153310023363e-06 6.4185232447608708e-08 0 -2.2457124614642665e-06 -1.8544310482837208e-06 0 -7.9635839567198511e-06 -2.9823519734358562e-06 0 -6.8882525980921072e-06 -8.4053089690996092e-07 0 -4.6841021522792159e-06 -1.2398066405089043e-06 0 -6.9685388317217189e-07 1.2089995512057898e-06 0 -2.774341828302016e-07 -3.5325040136643359e-07 0 9.6206746799355536e-07 5.5087938591079532e-07 0 -6.9685388317217189e-07 1.2089995512057898e-06 0 -2.774341828302016e-07 -3.5325040136643359e-07 0 -2.2517153310023363e-06 6.4185232447608708e-08 0 -2.774341828302016e-07 -3.5325040136643359e-07 0 -2.2517153310023363e-06 6.4185232447608708e-08 0 -2.2457124614642665e-06 -1.8544310482837208e-06 0 -2.774341828302016e-07 -3.5325040136643359e-07 0 4.8893332696441421e-07 -2.9074611335337841e-06 0 1.9324316419353165e-06 -6.8520083727273814e-07 0 -2.774341828302016e-07 -3.5325040136643359e-07 0 4.8893332696441421e-07 -2.9074611335337841e-06 0 -2.2457124614642665e-06 -1.8544310482837208e-06 0 4.8893332696441421e-07 -2.9074611335337841e-06 0 -2.2457124614642665e-06 -1.8544310482837208e-06 0 -3.2513845566535048e-06 -4.4682035948929853e-06 0 4.8893332696441421e-07 -2.9074611335337841e-06 0 -3.2513845566535048e-06 -4.4682035948929853e-06 0 -5.9466987551304223e-07 -6.3893583661677449e-06 0 4.8893332696441421e-07 -2.9074611335337841e-06 0 -5.9466987551304223e-07 -6.3893583661677449e-06 0 3.0648250585282262e-06 -5.2444046102891556e-06 0 -7.9635839567198511e-06 -2.9823519734358562e-06 0 -4.6841021522792159e-06 -1.2398066405089043e-06 0 -4.9934961326093501e-06 -3.0847551169609097e-06 0 -7.9635839567198511e-06 -2.9823519734358562e-06 0 -4.9934961326093501e-06 -3.0847551169609097e-06 0 -7.4896143844652006e-06 -5.3589500494802247e-06 0 -2.2457124614642665e-06 -1.8544310482837208e-06 0 -4.9934961326093501e-06 -3.0847551169609097e-06 0 -3.2513845566535048e-06 -4.4682035948929853e-06 0 -3.2513845566535048e-06 -4.4682035948929853e-06 0 -7.4896143844652006e-06 -5.3589500494802247e-06 0 -5.5622973847940154e-06 -7.8762609049220978e-06 0 -4.9934961326093501e-06 -3.0847551169609097e-06 0 -3.2513845566535048e-06 -4.4682035948929853e-06 0 -7.4896143844652006e-06 -5.3589500494802247e-06 0 -7.4896143844652006e-06 -5.3589500494802247e-06 0 -5.5622973847940154e-06 -7.8762609049220978e-06 0 -1.1277197391448553e-05 -8.7590517438187248e-06 0 -5.5622973847940154e-06 -7.8762609049220978e-06 0 -2.3316886701788504e-06 -1.033396282681685e-05 0 -9.1885853493485385e-06 -1.3006211210527599e-05 0 -5.5622973847940154e-06 -7.8762609049220978e-06 0 -9.1885853493485385e-06 -1.3006211210527599e-05 0 -1.1277197391448553e-05 -8.7590517438187248e-06 0 -5.9466987551304223e-07 -6.3893583661677449e-06 0 2.5428223390801787e-06 -8.8854184242075108e-06 0 3.0648250585282262e-06 -5.2444046102891556e-06 0 -3.2513845566535048e-06 -4.4682035948929853e-06 0 -5.5622973847940154e-06 -7.8762609049220978e-06 0 -5.9466987551304223e-07 -6.3893583661677449e-06 0 -5.5622973847940154e-06 -7.8762609049220978e-06 0 -5.9466987551304223e-07 -6.3893583661677449e-06 0 -2.3316886701788504e-06 -1.033396282681685e-05 0 -5.9466987551304223e-07 -6.3893583661677449e-06 0 -2.3316886701788504e-06 -1.033396282681685e-05 0 2.5428223390801787e-06 -8.8854184242075108e-06 0 -2.3316886701788504e-06 -1.033396282681685e-05 0 9.3298381401693563e-07 -1.3633136488437737e-05 0 2.5428223390801787e-06 -8.8854184242075108e-06 0 -2.3316886701788504e-06 -1.033396282681685e-05 0 9.3298381401693563e-07 -1.3633136488437737e-05 0 -4.0133586380757354e-06 -1.6046425078592499e-05 0 -4.0133586380757354e-06 -1.6046425078592499e-05 0 -6.8403998924419816e-06 -2.3546273857417301e-05 0 -1.54044383990362e-06 -2.0830306194071876e-05 0 9.3298381401693563e-07 -1.3633136488437737e-05 0 -4.0133586380757354e-06 -1.6046425078592499e-05 0 -1.54044383990362e-06 -2.0830306194071876e-05 0 9.3298381401693563e-07 -1.3633136488437737e-05 0 3.8835630764818117e-06 -1.7417854994759487e-05 0 -1.54044383990362e-06 -2.0830306194071876e-05 0 -9.1885853493485385e-06 -1.3006211210527599e-05 0 -4.0133586380757354e-06 -1.6046425078592499e-05 0 -1.0023678172337146e-05 -1.8767603605567613e-05 0 -2.3316886701788504e-06 -1.033396282681685e-05 0 -9.1885853493485385e-06 -1.3006211210527599e-05 0 -4.0133586380757354e-06 -1.6046425078592499e-05 0 -4.0133586380757354e-06 -1.6046425078592499e-05 0 -1.0023678172337146e-05 -1.8767603605567613e-05 0 -6.8403998924419816e-06 -2.3546273857417301e-05 0 -9.1885853493485385e-06 -1.3006211210527599e-05 0 -1.0023678172337146e-05 -1.8767603605567613e-05 0 -1.6423541789424395e-05 -1.8804870389126724e-05 0 -1.0023678172337146e-05 -1.8767603605567613e-05 0 -1.6423541789424395e-05 -1.8804870389126724e-05 0 -1.3690108818254666e-05 -2.3385212874784742e-05 0 -9.1885853493485385e-06 -1.3006211210527599e-05 0 -1.6423541789424395e-05 -1.8804870389126724e-05 0 -1.637155404370266e-05 -1.3488015244946309e-05 0 -1.6423541789424395e-05 -1.8804870389126724e-05 0 -2.2917072585801428e-05 -1.8646518336994116e-05 0 -1.637155404370266e-05 -1.3488015244946309e-05 0 -1.6423541789424395e-05 -1.8804870389126724e-05 0 -2.2917072585801428e-05 -1.8646518336994116e-05 0 -2.3652750765361531e-05 -2.6877340903945993e-05 0 -2.2917072585801428e-05 -1.8646518336994116e-05 0 -3.1839598536938543e-05 -2.4386691867670966e-05 0 -2.3652750765361531e-05 -2.6877340903945993e-05 0 -2.2917072585801428e-05 -1.8646518336994116e-05 0 -3.1839598536938543e-05 -2.4386691867670966e-05 0 -2.7498715661012145e-05 -1.7068119397121686e-05 0 -2.2917072585801428e-05 -1.8646518336994116e-05 0 -2.7498715661012145e-05 -1.7068119397121686e-05 0 -2.1356179496740737e-05 -1.3855856188486629e-05 0 -2.2917072585801428e-05 -1.8646518336994116e-05 0 -2.1356179496740737e-05 -1.3855856188486629e-05 0 -1.637155404370266e-05 -1.3488015244946309e-05 0 -2.1356179496740737e-05 -1.3855856188486629e-05 0 -2.3124357231033841e-05 -1.1287168548250937e-05 0 -1.6958661597226655e-05 -9.5867684316442666e-06 0 -2.1356179496740737e-05 -1.3855856188486629e-05 0 -1.6958661597226655e-05 -9.5867684316442666e-06 0 -1.637155404370266e-05 -1.3488015244946309e-05 0 -2.7498715661012145e-05 -1.7068119397121686e-05 0 -2.1356179496740737e-05 -1.3855856188486629e-05 0 -2.3124357231033841e-05 -1.1287168548250937e-05 0 -1.6931477569432602e-05 -7.0644688864999501e-06 0 -2.3124357231033841e-05 -1.1287168548250937e-05 0 -1.6958661597226655e-05 -9.5867684316442666e-06 0 -1.2144295847787762e-05 -5.4350880415540264e-06 0 -1.6958661597226655e-05 -9.5867684316442666e-06 0 -1.1277197391448553e-05 -8.7590517438187248e-06 0 -9.1885853493485385e-06 -1.3006211210527599e-05 0 -1.1277197391448553e-05 -8.7590517438187248e-06 0 -1.637155404370266e-05 -1.3488015244946309e-05 0 -1.6958661597226655e-05 -9.5867684316442666e-06 0 -1.1277197391448553e-05 -8.7590517438187248e-06 0 -1.637155404370266e-05 -1.3488015244946309e-05 0 8.0906863217763838e-06 -5.4894163547317079e-06 0 8.4159369048795669e-06 -2.9991497017427179e-06 0 9.1733297404652877e-06 -4.4142267907811338e-06 0 8.0906863217763838e-06 -5.4894163547317079e-06 0 7.3759431780413383e-06 -3.7346438826381783e-06 0 8.4159369048795669e-06 -2.9991497017427179e-06 0 8.0906863217763838e-06 -5.4894163547317079e-06 0 7.3759431780413383e-06 -3.7346438826381783e-06 0 6.6818972647186818e-06 -5.6326417397636425e-06 0 8.4159369048795669e-06 -2.9991497017427179e-06 0 9.6324763837551774e-06 -1.6861727501095621e-06 0 9.1733297404652877e-06 -4.4142267907811338e-06 0 9.6324763837551774e-06 -1.6861727501095621e-06 0 1.0768620919037341e-05 -2.2028339032453623e-06 0 1.0823025183112885e-05 2.3300476214598753e-07 0 9.6324763837551774e-06 -1.6861727501095621e-06 0 1.0768620919037341e-05 -2.2028339032453623e-06 0 9.1733297404652877e-06 -4.4142267907811338e-06 0 1.0768620919037341e-05 -2.2028339032453623e-06 0 9.1733297404652877e-06 -4.4142267907811338e-06 0 1.0089385982126855e-05 -4.7313269152456085e-06 0 9.1733297404652877e-06 -4.4142267907811338e-06 0 1.0089385982126855e-05 -4.7313269152456085e-06 0 9.5219894214822151e-06 -7.069218849014403e-06 0 1.0768620919037341e-05 -2.2028339032453623e-06 0 1.0089385982126855e-05 -4.7313269152456085e-06 0 1.1128907390018399e-05 -5.4088391133093141e-06 0 1.0089385982126855e-05 -4.7313269152456085e-06 0 1.1128907390018399e-05 -5.4088391133093141e-06 0 9.5219894214822151e-06 -7.069218849014403e-06 0 9.5219894214822151e-06 -7.069218849014403e-06 0 8.3520367123983943e-06 -7.6730169531282569e-06 0 8.5093696548222086e-06 -1.0120355429714096e-05 0 9.1733297404652877e-06 -4.4142267907811338e-06 0 9.5219894214822151e-06 -7.069218849014403e-06 0 8.3520367123983943e-06 -7.6730169531282569e-06 0 8.0906863217763838e-06 -5.4894163547317079e-06 0 9.1733297404652877e-06 -4.4142267907811338e-06 0 8.3520367123983943e-06 -7.6730169531282569e-06 0 8.0906863217763838e-06 -5.4894163547317079e-06 0 8.3520367123983943e-06 -7.6730169531282569e-06 0 7.508129395573577e-06 -7.912443624462389e-06 0 8.3520367123983943e-06 -7.6730169531282569e-06 0 7.4863582815078833e-06 -1.0720356072327089e-05 0 8.5093696548222086e-06 -1.0120355429714096e-05 0 7.4863582815078833e-06 -1.0720356072327089e-05 0 7.5596457025779191e-06 -1.0801816152279764e-05 0 8.8856790213500969e-06 -1.4848728731387375e-05 0 7.4863582815078833e-06 -1.0720356072327089e-05 0 7.5596457025779191e-06 -1.0801816152279764e-05 0 7.508129395573577e-06 -7.912443624462389e-06 0 7.5596457025779191e-06 -1.0801816152279764e-05 0 7.508129395573577e-06 -7.912443624462389e-06 0 6.0049026872451644e-06 -7.6605318479541892e-06 0 8.3520367123983943e-06 -7.6730169531282569e-06 0 7.4863582815078833e-06 -1.0720356072327089e-05 0 7.508129395573577e-06 -7.912443624462389e-06 0 3.8835630764818117e-06 -1.7417854994759487e-05 0 5.6794364459096322e-06 -1.1729782464646198e-05 0 8.8856790213500969e-06 -1.4848728731387375e-05 0 9.3298381401693563e-07 -1.3633136488437737e-05 0 3.8835630764818117e-06 -1.7417854994759487e-05 0 5.6794364459096322e-06 -1.1729782464646198e-05 0 7.5596457025779191e-06 -1.0801816152279764e-05 0 5.6794364459096322e-06 -1.1729782464646198e-05 0 8.8856790213500969e-06 -1.4848728731387375e-05 0 7.5596457025779191e-06 -1.0801816152279764e-05 0 5.6794364459096322e-06 -1.1729782464646198e-05 0 6.0049026872451644e-06 -7.6605318479541892e-06 0 9.3298381401693563e-07 -1.3633136488437737e-05 0 5.6794364459096322e-06 -1.1729782464646198e-05 0 2.5428223390801787e-06 -8.8854184242075108e-06 0 5.6794364459096322e-06 -1.1729782464646198e-05 0 2.5428223390801787e-06 -8.8854184242075108e-06 0 6.0049026872451644e-06 -7.6605318479541892e-06 0 2.5428223390801787e-06 -8.8854184242075108e-06 0 6.0049026872451644e-06 -7.6605318479541892e-06 0 3.0648250585282262e-06 -5.2444046102891556e-06 0 6.0049026872451644e-06 -7.6605318479541892e-06 0 3.0648250585282262e-06 -5.2444046102891556e-06 0 5.1460377914796383e-06 -4.0646446029697636e-06 0 8.0906863217763838e-06 -5.4894163547317079e-06 0 7.508129395573577e-06 -7.912443624462389e-06 0 6.6818972647186818e-06 -5.6326417397636425e-06 0 7.508129395573577e-06 -7.912443624462389e-06 0 6.0049026872451644e-06 -7.6605318479541892e-06 0 6.6818972647186818e-06 -5.6326417397636425e-06 0 6.0049026872451644e-06 -7.6605318479541892e-06 0 6.6818972647186818e-06 -5.6326417397636425e-06 0 5.1460377914796383e-06 -4.0646446029697636e-06 0 6.6818972647186818e-06 -5.6326417397636425e-06 0 5.1460377914796383e-06 -4.0646446029697636e-06 0 6.122350804564267e-06 -1.802449355249414e-06 0 7.3759431780413383e-06 -3.7346438826381783e-06 0 6.6818972647186818e-06 -5.6326417397636425e-06 0 6.122350804564267e-06 -1.802449355249414e-06 0 5.1460377914796383e-06 -4.0646446029697636e-06 0 4.783741483114088e-06 -1.9936783769398487e-06 0 6.122350804564267e-06 -1.802449355249414e-06 0 4.783741483114088e-06 -1.9936783769398487e-06 0 6.122350804564267e-06 -1.802449355249414e-06 0 5.0179570184184713e-06 -6.6394920352947308e-07 0 4.8893332696441421e-07 -2.9074611335337841e-06 0 3.0648250585282262e-06 -5.2444046102891556e-06 0 3.3164331777178775e-06 -2.5200858311036995e-06 0 3.0648250585282262e-06 -5.2444046102891556e-06 0 5.1460377914796383e-06 -4.0646446029697636e-06 0 3.3164331777178775e-06 -2.5200858311036995e-06 0 5.1460377914796383e-06 -4.0646446029697636e-06 0 4.783741483114088e-06 -1.9936783769398487e-06 0 3.3164331777178775e-06 -2.5200858311036995e-06 0 4.783741483114088e-06 -1.9936783769398487e-06 0 3.3164331777178775e-06 -2.5200858311036995e-06 0 3.7382927803161715e-06 -6.8628053160447129e-07 0 4.8893332696441421e-07 -2.9074611335337841e-06 0 3.3164331777178775e-06 -2.5200858311036995e-06 0 1.9324316419353165e-06 -6.8520083727273814e-07 0 3.3164331777178775e-06 -2.5200858311036995e-06 0 1.9324316419353165e-06 -6.8520083727273814e-07 0 3.7382927803161715e-06 -6.8628053160447129e-07 0 1.9324316419353165e-06 -6.8520083727273814e-07 0 3.7382927803161715e-06 -6.8628053160447129e-07 0 2.5458633838496671e-06 7.8816555752162218e-07 0 1.9324316419353165e-06 -6.8520083727273814e-07 0 9.6206746799355536e-07 5.5087938591079532e-07 0 2.5458633838496671e-06 7.8816555752162218e-07 0 -2.774341828302016e-07 -3.5325040136643359e-07 0 1.9324316419353165e-06 -6.8520083727273814e-07 0 9.6206746799355536e-07 5.5087938591079532e-07 0 6.122350804564267e-06 -1.802449355249414e-06 0 5.0179570184184713e-06 -6.6394920352947308e-07 0 5.7215526825348061e-06 1.0306618833738448e-07 0 4.783741483114088e-06 -1.9936783769398487e-06 0 5.0179570184184713e-06 -6.6394920352947308e-07 0 3.7382927803161715e-06 -6.8628053160447129e-07 0 5.0179570184184713e-06 -6.6394920352947308e-07 0 3.7382927803161715e-06 -6.8628053160447129e-07 0 4.2301831621297556e-06 4.0081638322434644e-07 0 3.7382927803161715e-06 -6.8628053160447129e-07 0 4.2301831621297556e-06 4.0081638322434644e-07 0 2.5458633838496671e-06 7.8816555752162218e-07 0 5.0179570184184713e-06 -6.6394920352947308e-07 0 4.2301831621297556e-06 4.0081638322434644e-07 0 5.7215526825348061e-06 1.0306618833738448e-07 0 4.2301831621297556e-06 4.0081638322434644e-07 0 5.7215526825348061e-06 1.0306618833738448e-07 0 4.1883844182627399e-06 1.1625785138730216e-06 0 5.7215526825348061e-06 1.0306618833738448e-07 0 7.1750483532750988e-06 1.7011482027591685e-07 0 5.5956561705151033e-06 8.6856405481209642e-07 0 7.1750483532750988e-06 1.7011482027591685e-07 0 7.0672452144407593e-06 7.927812763349774e-07 0 5.5956561705151033e-06 8.6856405481209642e-07 0 5.7215526825348061e-06 1.0306618833738448e-07 0 7.1750483532750988e-06 1.7011482027591685e-07 0 6.9895178197474593e-06 -8.3040176230923199e-07 0 6.122350804564267e-06 -1.802449355249414e-06 0 5.7215526825348061e-06 1.0306618833738448e-07 0 6.9895178197474593e-06 -8.3040176230923199e-07 0 6.122350804564267e-06 -1.802449355249414e-06 0 6.9895178197474593e-06 -8.3040176230923199e-07 0 7.5094679273658353e-06 -2.0402470770048852e-06 0 6.9895178197474593e-06 -8.3040176230923199e-07 0 7.5094679273658353e-06 -2.0402470770048852e-06 0 8.3871688790643205e-06 -8.9032625383858784e-07 0 7.1750483532750988e-06 1.7011482027591685e-07 0 6.9895178197474593e-06 -8.3040176230923199e-07 0 8.3871688790643205e-06 -8.9032625383858784e-07 0 8.4159369048795669e-06 -2.9991497017427179e-06 0 7.5094679273658353e-06 -2.0402470770048852e-06 0 8.3871688790643205e-06 -8.9032625383858784e-07 0 7.3759431780413383e-06 -3.7346438826381783e-06 0 8.4159369048795669e-06 -2.9991497017427179e-06 0 7.5094679273658353e-06 -2.0402470770048852e-06 0 7.3759431780413383e-06 -3.7346438826381783e-06 0 6.122350804564267e-06 -1.802449355249414e-06 0 7.5094679273658353e-06 -2.0402470770048852e-06 0 9.6324763837551774e-06 -1.6861727501095621e-06 0 9.5453355688513361e-06 -8.3741708192570263e-08 0 1.0823025183112885e-05 2.3300476214598753e-07 0 9.6324763837551774e-06 -1.6861727501095621e-06 0 9.5453355688513361e-06 -8.3741708192570263e-08 0 8.3871688790643205e-06 -8.9032625383858784e-07 0 8.4159369048795669e-06 -2.9991497017427179e-06 0 9.6324763837551774e-06 -1.6861727501095621e-06 0 8.3871688790643205e-06 -8.9032625383858784e-07 0 7.1750483532750988e-06 1.7011482027591685e-07 0 8.3871688790643205e-06 -8.9032625383858784e-07 0 8.5623780458215578e-06 3.6369799325211605e-07 0 9.5453355688513361e-06 -8.3741708192570263e-08 0 8.5623780458215578e-06 3.6369799325211605e-07 0 1.0207590009626422e-05 1.1730299075106251e-06 0 9.5453355688513361e-06 -8.3741708192570263e-08 0 8.3871688790643205e-06 -8.9032625383858784e-07 0 8.5623780458215578e-06 3.6369799325211605e-07 0 8.5623780458215578e-06 3.6369799325211605e-07 0 7.0672452144407593e-06 7.927812763349774e-07 0 8.5735376513343566e-06 9.6642248671857427e-07 0 7.1750483532750988e-06 1.7011482027591685e-07 0 8.5623780458215578e-06 3.6369799325211605e-07 0 7.0672452144407593e-06 7.927812763349774e-07 0 7.0672452144407593e-06 7.927812763349774e-07 0 7.1173457038624565e-06 9.8326589871880755e-07 0 8.5735376513343566e-06 9.6642248671857427e-07 0 7.1173457038624565e-06 9.8326589871880755e-07 0 5.579153654936885e-06 1.0238569512607333e-06 0 5.872986862499134e-06 1.0345419052382982e-06 0 5.579153654936885e-06 1.0238569512607333e-06 0 5.872986862499134e-06 1.0345419052382982e-06 0 4.6854764542398914e-06 1.2679616160178879e-06 0 7.0672452144407593e-06 7.927812763349774e-07 0 5.872986862499134e-06 1.0345419052382982e-06 0 5.5956561705151033e-06 8.6856405481209642e-07 0 7.0672452144407593e-06 7.927812763349774e-07 0 7.1173457038624565e-06 9.8326589871880755e-07 0 5.872986862499134e-06 1.0345419052382982e-06 0 5.7215526825348061e-06 1.0306618833738448e-07 0 5.5956561705151033e-06 8.6856405481209642e-07 0 4.1883844182627399e-06 1.1625785138730216e-06 0 4.6854764542398914e-06 1.2679616160178879e-06 0 3.3681901196555536e-06 1.540317157976504e-06 0 4.1883844182627399e-06 1.1625785138730216e-06 0 5.5956561705151033e-06 8.6856405481209642e-07 0 4.6854764542398914e-06 1.2679616160178879e-06 0 4.1883844182627399e-06 1.1625785138730216e-06 0 5.872986862499134e-06 1.0345419052382982e-06 0 5.5956561705151033e-06 8.6856405481209642e-07 0 4.6854764542398914e-06 1.2679616160178879e-06 0 4.6854764542398914e-06 1.2679616160178879e-06 0 3.2633228930700938e-06 1.3407760358027792e-06 0 4.2449904073920963e-06 1.131162156077909e-06 0 4.6854764542398914e-06 1.2679616160178879e-06 0 3.3681901196555536e-06 1.540317157976504e-06 0 3.2633228930700938e-06 1.3407760358027792e-06 0 3.3681901196555536e-06 1.540317157976504e-06 0 3.2633228930700938e-06 1.3407760358027792e-06 0 2.2203255033098362e-06 1.4806304089780146e-06 0 3.2633228930700938e-06 1.3407760358027792e-06 0 4.2449904073920963e-06 1.131162156077909e-06 0 2.9586222981241553e-06 9.7072636652865191e-07 0 4.2449904073920963e-06 1.131162156077909e-06 0 2.9586222981241553e-06 9.7072636652865191e-07 0 3.5235978212024879e-06 6.5468310772865986e-07 0 4.2449904073920963e-06 1.131162156077909e-06 0 3.5235978212024879e-06 6.5468310772865986e-07 0 4.9595844358537723e-06 8.065512693506551e-07 0 5.579153654936885e-06 1.0238569512607333e-06 0 4.2449904073920963e-06 1.131162156077909e-06 0 4.9595844358537723e-06 8.065512693506551e-07 0 5.579153654936885e-06 1.0238569512607333e-06 0 4.6854764542398914e-06 1.2679616160178879e-06 0 4.2449904073920963e-06 1.131162156077909e-06 0 9.6206746799355536e-07 5.5087938591079532e-07 0 1.0772436416430103e-06 1.4605415101192136e-06 0 2.5458633838496671e-06 7.8816555752162218e-07 0 1.0772436416430103e-06 1.4605415101192136e-06 0 2.5458633838496671e-06 7.8816555752162218e-07 0 2.3517952590936127e-06 1.5730716236764423e-06 0 1.0772436416430103e-06 1.4605415101192136e-06 0 2.3517952590936127e-06 1.5730716236764423e-06 0 1.1289288064854278e-06 1.8943863998285993e-06 0 2.3517952590936127e-06 1.5730716236764423e-06 0 3.3605534326299224e-06 1.1030242146854744e-06 0 3.0703002981933722e-06 1.5587756979334979e-06 0 2.5458633838496671e-06 7.8816555752162218e-07 0 2.3517952590936127e-06 1.5730716236764423e-06 0 3.3605534326299224e-06 1.1030242146854744e-06 0 4.2301831621297556e-06 4.0081638322434644e-07 0 2.5458633838496671e-06 7.8816555752162218e-07 0 3.3605534326299224e-06 1.1030242146854744e-06 0 4.2301831621297556e-06 4.0081638322434644e-07 0 3.3605534326299224e-06 1.1030242146854744e-06 0 4.1883844182627399e-06 1.1625785138730216e-06 0 3.3605534326299224e-06 1.1030242146854744e-06 0 4.1883844182627399e-06 1.1625785138730216e-06 0 3.0703002981933722e-06 1.5587756979334979e-06 0 3.3681901196555536e-06 1.540317157976504e-06 0 4.1883844182627399e-06 1.1625785138730216e-06 0 3.0703002981933722e-06 1.5587756979334979e-06 0 3.3681901196555536e-06 1.540317157976504e-06 0 3.0703002981933722e-06 1.5587756979334979e-06 0 1.9980912164614783e-06 1.8365641068774022e-06 0 3.3681901196555536e-06 1.540317157976504e-06 0 1.9980912164614783e-06 1.8365641068774022e-06 0 2.2203255033098362e-06 1.4806304089780146e-06 0 2.3517952590936127e-06 1.5730716236764423e-06 0 3.0703002981933722e-06 1.5587756979334979e-06 0 1.9980912164614783e-06 1.8365641068774022e-06 0 2.3517952590936127e-06 1.5730716236764423e-06 0 1.9980912164614783e-06 1.8365641068774022e-06 0 1.1289288064854278e-06 1.8943863998285993e-06 0 1.9980912164614783e-06 1.8365641068774022e-06 0 1.1289288064854278e-06 1.8943863998285993e-06 0 5.9595321231564491e-07 1.9739849244353957e-06 0 3.9684034148327325e-08 2.0122157101440498e-06 0 1.1289288064854278e-06 1.8943863998285993e-06 0 5.9595321231564491e-07 1.9739849244353957e-06 0 -1.7592811696370431e-07 1.8612328013959728e-06 0 1.0772436416430103e-06 1.4605415101192136e-06 0 1.1289288064854278e-06 1.8943863998285993e-06 0 -1.7592811696370431e-07 1.8612328013959728e-06 0 3.9684034148327325e-08 2.0122157101440498e-06 0 1.1289288064854278e-06 1.8943863998285993e-06 0 4.8453091742683415e-08 1.8676366920972256e-06 0 8.9343975160561425e-07 1.7326765131998758e-06 0 2.3132636130253712e-07 1.2093148672604472e-06 0 4.8453091742683415e-08 1.8676366920972256e-06 0 3.9684034148327325e-08 2.0122157101440498e-06 0 5.9595321231564491e-07 1.9739849244353957e-06 0 4.8453091742683415e-08 1.8676366920972256e-06 0 5.9595321231564491e-07 1.9739849244353957e-06 0 8.9343975160561425e-07 1.7326765131998758e-06 0 1.9980912164614783e-06 1.8365641068774022e-06 0 5.9595321231564491e-07 1.9739849244353957e-06 0 8.9343975160561425e-07 1.7326765131998758e-06 0 8.9343975160561425e-07 1.7326765131998758e-06 0 5.4114443021944921e-07 1.0266850883195459e-06 0 2.3132636130253712e-07 1.2093148672604472e-06 0 8.9343975160561425e-07 1.7326765131998758e-06 0 1.3251475520675229e-06 1.4926071458805167e-06 0 5.4114443021944921e-07 1.0266850883195459e-06 0 1.9980912164614783e-06 1.8365641068774022e-06 0 8.9343975160561425e-07 1.7326765131998758e-06 0 1.3251475520675229e-06 1.4926071458805167e-06 0 1.9980912164614783e-06 1.8365641068774022e-06 0 1.3251475520675229e-06 1.4926071458805167e-06 0 2.2203255033098362e-06 1.4806304089780146e-06 0 1.3251475520675229e-06 1.4926071458805167e-06 0 2.2203255033098362e-06 1.4806304089780146e-06 0 8.9861065255033092e-07 9.3728610407480063e-07 0 1.3251475520675229e-06 1.4926071458805167e-06 0 5.4114443021944921e-07 1.0266850883195459e-06 0 8.9861065255033092e-07 9.3728610407480063e-07 0 6.2460949793372146e-10 4.8105636051620497e-10 0 5.4114443021944921e-07 1.0266850883195459e-06 0 8.9861065255033092e-07 9.3728610407480063e-07 0 6.2460949793372146e-10 4.8105636051620497e-10 0 5.4114443021944921e-07 1.0266850883195459e-06 0 3.8801016504162083e-10 4.8254122653978942e-10 0 5.4114443021944921e-07 1.0266850883195459e-06 0 3.8801016504162083e-10 4.8254122653978942e-10 0 2.3132636130253712e-07 1.2093148672604472e-06 0 3.8801016504162083e-10 4.8254122653978942e-10 0 1.9167869864993153e-11 5.6877678333073456e-10 0 2.3132636130253712e-07 1.2093148672604472e-06 0 -1.2210986206782066e-07 1.1283174211517191e-06 0 1.9167869864993153e-11 5.6877678333073456e-10 0 2.3132636130253712e-07 1.2093148672604472e-06 0 1.8283511020569554e-06 5.3579223388575115e-07 0 2.9586222981241553e-06 9.7072636652865191e-07 0 1.8136831343091441e-06 9.6863621414393716e-07 0 1.8283511020569554e-06 5.3579223388575115e-07 0 2.9586222981241553e-06 9.7072636652865191e-07 0 3.5235978212024879e-06 6.5468310772865986e-07 0 3.2633228930700938e-06 1.3407760358027792e-06 0 2.9586222981241553e-06 9.7072636652865191e-07 0 1.8136831343091441e-06 9.6863621414393716e-07 0 3.2633228930700938e-06 1.3407760358027792e-06 0 2.2203255033098362e-06 1.4806304089780146e-06 0 1.8136831343091441e-06 9.6863621414393716e-07 0 2.2203255033098362e-06 1.4806304089780146e-06 0 1.8136831343091441e-06 9.6863621414393716e-07 0 8.9861065255033092e-07 9.3728610407480063e-07 0 1.8136831343091441e-06 9.6863621414393716e-07 0 7.5364564295059209e-07 5.6206973038435272e-07 0 8.9861065255033092e-07 9.3728610407480063e-07 0 6.2460949793372146e-10 4.8105636051620497e-10 0 8.9861065255033092e-07 9.3728610407480063e-07 0 9.4956779333365547e-10 2.9713994515984498e-10 0 7.5364564295059209e-07 5.6206973038435272e-07 0 8.9861065255033092e-07 9.3728610407480063e-07 0 9.4956779333365547e-10 2.9713994515984498e-10 0 7.5364564295059209e-07 5.6206973038435272e-07 0 9.4956779333365547e-10 2.9713994515984498e-10 0 1.0977747168482344e-09 2.4897897640729591e-10 0 7.5364564295059209e-07 5.6206973038435272e-07 0 1.0977747168482344e-09 2.4897897640729591e-10 0 7.8944865197847022e-07 4.0528683194197596e-07 0 1.8283511020569554e-06 5.3579223388575115e-07 0 7.8944865197847022e-07 4.0528683194197596e-07 0 1.1767943318401202e-09 2.0080957961308507e-10 0 1.8283511020569554e-06 5.3579223388575115e-07 0 1.8136831343091441e-06 9.6863621414393716e-07 0 7.8944865197847022e-07 4.0528683194197596e-07 0 1.8136831343091441e-06 9.6863621414393716e-07 0 7.5364564295059209e-07 5.6206973038435272e-07 0 7.8944865197847022e-07 4.0528683194197596e-07 0 1.0977747168482344e-09 2.4897897640729591e-10 0 7.8944865197847022e-07 4.0528683194197596e-07 0 1.1767943318401202e-09 2.0080957961308507e-10 0 1.8283511020569554e-06 5.3579223388575115e-07 0 1.1767943318401202e-09 2.0080957961308507e-10 0 1.1853754633264369e-06 1.2567497189765113e-07 0 1.1767943318401202e-09 2.0080957961308507e-10 0 1.2513679971771849e-09 -9.1298641787695994e-11 0 1.1853754633264369e-06 1.2567497189765113e-07 0 1.2513679971771849e-09 -9.1298641787695994e-11 0 1.1853754633264369e-06 1.2567497189765113e-07 0 8.9892273448394706e-07 -1.1465099484267874e-07 0 1.1853754633264369e-06 1.2567497189765113e-07 0 2.2081427899007164e-06 -1.0099008757039752e-07 0 8.9892273448394706e-07 -1.1465099484267874e-07 0 1.8283511020569554e-06 5.3579223388575115e-07 0 1.1853754633264369e-06 1.2567497189765113e-07 0 2.4342333785631415e-06 2.4488567267032826e-07 0 1.8283511020569554e-06 5.3579223388575115e-07 0 2.4342333785631415e-06 2.4488567267032826e-07 0 3.5235978212024879e-06 6.5468310772865986e-07 0 1.1853754633264369e-06 1.2567497189765113e-07 0 2.4342333785631415e-06 2.4488567267032826e-07 0 2.2081427899007164e-06 -1.0099008757039752e-07 0 2.4342333785631415e-06 2.4488567267032826e-07 0 3.4700741763317048e-06 9.3729353134299455e-09 0 2.2081427899007164e-06 -1.0099008757039752e-07 0 2.4342333785631415e-06 2.4488567267032826e-07 0 3.5235978212024879e-06 6.5468310772865986e-07 0 3.4700741763317048e-06 9.3729353134299455e-09 0 2.9293109709100546e-06 -5.0030254631019302e-07 0 3.4700741763317048e-06 9.3729353134299455e-09 0 2.2081427899007164e-06 -1.0099008757039752e-07 0 2.9293109709100546e-06 -5.0030254631019302e-07 0 1.2764906107831775e-06 -4.4842537706267828e-07 0 2.1618333672511459e-06 -9.2065820229145422e-07 0 2.9293109709100546e-06 -5.0030254631019302e-07 0 2.2081427899007164e-06 -1.0099008757039752e-07 0 1.2764906107831775e-06 -4.4842537706267828e-07 0 2.2081427899007164e-06 -1.0099008757039752e-07 0 1.2764906107831775e-06 -4.4842537706267828e-07 0 8.9892273448394706e-07 -1.1465099484267874e-07 0 1.2513679971771849e-09 -9.1298641787695994e-11 0 8.9892273448394706e-07 -1.1465099484267874e-07 0 1.2580353606505351e-09 -1.0438246474131525e-11 0 1.2764906107831775e-06 -4.4842537706267828e-07 0 1.2580353606505351e-09 -1.0438246474131525e-11 0 9.9016663500605549e-10 -3.656023860933454e-10 0 1.2764906107831775e-06 -4.4842537706267828e-07 0 8.9892273448394706e-07 -1.1465099484267874e-07 0 1.2580353606505351e-09 -1.0438246474131525e-11 0 9.9016663500605549e-10 -3.656023860933454e-10 0 9.8602001306609719e-07 -8.0733479514828158e-07 0 7.396815019219574e-10 -4.5707145258220781e-10 0 1.2764906107831775e-06 -4.4842537706267828e-07 0 9.8602001306609719e-07 -8.0733479514828158e-07 0 2.1618333672511459e-06 -9.2065820229145422e-07 0 1.2764906107831775e-06 -4.4842537706267828e-07 0 9.9016663500605549e-10 -3.656023860933454e-10 0 9.8602001306609719e-07 -8.0733479514828158e-07 0 7.396815019219574e-10 -4.5707145258220781e-10 0 6.4710510616985627e-07 -1.2374845638410673e-06 0 3.3641822133596498e-10 -6.6845275274927658e-10 0 9.8602001306609719e-07 -8.0733479514828158e-07 0 7.396815019219574e-10 -4.5707145258220781e-10 0 6.4710510616985627e-07 -1.2374845638410673e-06 0 6.4710510616985627e-07 -1.2374845638410673e-06 0 3.3641822133596498e-10 -6.6845275274927658e-10 0 1.6048667811508697e-07 -1.3312065660446994e-06 0 6.4710510616985627e-07 -1.2374845638410673e-06 0 2.0843406986063779e-06 -1.5239154075603358e-06 0 8.0838073541995836e-07 -2.0076529515320095e-06 0 2.0843406986063779e-06 -1.5239154075603358e-06 0 1.8531324651911029e-06 -1.8920642475389023e-06 0 8.0838073541995836e-07 -2.0076529515320095e-06 0 9.8602001306609719e-07 -8.0733479514828158e-07 0 6.4710510616985627e-07 -1.2374845638410673e-06 0 2.0843406986063779e-06 -1.5239154075603358e-06 0 1.8531324651911029e-06 -1.8920642475389023e-06 0 8.0838073541995836e-07 -2.0076529515320095e-06 0 1.4991309371313473e-06 -2.0677356797537421e-06 0 9.8602001306609719e-07 -8.0733479514828158e-07 0 2.0843406986063779e-06 -1.5239154075603358e-06 0 2.1618333672511459e-06 -9.2065820229145422e-07 0 2.0843406986063779e-06 -1.5239154075603358e-06 0 2.1618333672511459e-06 -9.2065820229145422e-07 0 3.358346349451051e-06 -8.6005177325838751e-07 0 2.9293109709100546e-06 -5.0030254631019302e-07 0 2.1618333672511459e-06 -9.2065820229145422e-07 0 3.358346349451051e-06 -8.6005177325838751e-07 0 2.0843406986063779e-06 -1.5239154075603358e-06 0 3.358346349451051e-06 -8.6005177325838751e-07 0 4.4240113404906849e-06 -9.6383920551145057e-07 0 3.358346349451051e-06 -8.6005177325838751e-07 0 4.4240113404906849e-06 -9.6383920551145057e-07 0 4.8512498188793696e-06 -2.5201549529765253e-07 0 4.4240113404906849e-06 -9.6383920551145057e-07 0 6.2730182648288777e-06 7.6012689716540849e-09 0 4.8512498188793696e-06 -2.5201549529765253e-07 0 2.0843406986063779e-06 -1.5239154075603358e-06 0 4.4240113404906849e-06 -9.6383920551145057e-07 0 3.0644096636291814e-06 -1.5817813182870385e-06 0 1.8531324651911029e-06 -1.8920642475389023e-06 0 3.0644096636291814e-06 -1.5817813182870385e-06 0 1.4991309371313473e-06 -2.0677356797537421e-06 0 2.0843406986063779e-06 -1.5239154075603358e-06 0 1.8531324651911029e-06 -1.8920642475389023e-06 0 3.0644096636291814e-06 -1.5817813182870385e-06 0 4.4240113404906849e-06 -9.6383920551145057e-07 0 3.0644096636291814e-06 -1.5817813182870385e-06 0 4.1496350658127752e-06 -1.1319208983074413e-06 0 3.0644096636291814e-06 -1.5817813182870385e-06 0 1.4991309371313473e-06 -2.0677356797537421e-06 0 2.0647703178914e-06 -1.8315727244334849e-06 0 3.0644096636291814e-06 -1.5817813182870385e-06 0 4.1496350658127752e-06 -1.1319208983074413e-06 0 2.0647703178914e-06 -1.8315727244334849e-06 0 4.1496350658127752e-06 -1.1319208983074413e-06 0 4.6277238238820394e-06 -6.5523312765600138e-07 0 2.0647703178914e-06 -1.8315727244334849e-06 0 4.1496350658127752e-06 -1.1319208983074413e-06 0 4.6277238238820394e-06 -6.5523312765600138e-07 0 6.3801089292258976e-06 -1.3645986823961926e-07 0 4.6277238238820394e-06 -6.5523312765600138e-07 0 6.3801089292258976e-06 -1.3645986823961926e-07 0 6.9585674044386442e-06 7.6164443513357517e-07 0 4.6277238238820394e-06 -6.5523312765600138e-07 0 1.7246281203257209e-06 -1.0732362942508119e-06 0 4.6069044969873568e-06 2.4030216700752067e-07 0 4.6277238238820394e-06 -6.5523312765600138e-07 0 4.6069044969873568e-06 2.4030216700752067e-07 0 6.9585674044386442e-06 7.6164443513357517e-07 0 4.4240113404906849e-06 -9.6383920551145057e-07 0 6.3801089292258976e-06 -1.3645986823961926e-07 0 6.2730182648288777e-06 7.6012689716540849e-09 0 4.4240113404906849e-06 -9.6383920551145057e-07 0 4.1496350658127752e-06 -1.1319208983074413e-06 0 6.3801089292258976e-06 -1.3645986823961926e-07 0 6.3801089292258976e-06 -1.3645986823961926e-07 0 8.0240917338101095e-06 7.8496550625474921e-07 0 6.2730182648288777e-06 7.6012689716540849e-09 0 6.3801089292258976e-06 -1.3645986823961926e-07 0 8.0240917338101095e-06 7.8496550625474921e-07 0 9.1147535280345551e-06 1.5065495765724125e-06 0 8.0240917338101095e-06 7.8496550625474921e-07 0 6.2730182648288777e-06 7.6012689716540849e-09 0 7.4622075106950285e-06 7.0684436744607059e-07 0 8.0240917338101095e-06 7.8496550625474921e-07 0 7.4622075106950285e-06 7.0684436744607059e-07 0 9.0008725682203523e-06 1.2627405388530213e-06 0 6.2730182648288777e-06 7.6012689716540849e-09 0 7.4622075106950285e-06 7.0684436744607059e-07 0 5.8944072336809613e-06 2.9326777516063605e-07 0 7.4622075106950285e-06 7.0684436744607059e-07 0 6.3259405839327131e-06 7.7974444859494663e-07 0 5.8944072336809613e-06 2.9326777516063605e-07 0 7.4622075106950285e-06 7.0684436744607059e-07 0 8.1797191550165645e-06 1.064493301104471e-06 0 9.0008725682203523e-06 1.2627405388530213e-06 0 7.4622075106950285e-06 7.0684436744607059e-07 0 6.3259405839327131e-06 7.7974444859494663e-07 0 8.1797191550165645e-06 1.064493301104471e-06 0 7.1173457038624565e-06 9.8326589871880755e-07 0 6.3259405839327131e-06 7.7974444859494663e-07 0 8.1797191550165645e-06 1.064493301104471e-06 0 5.579153654936885e-06 1.0238569512607333e-06 0 6.3259405839327131e-06 7.7974444859494663e-07 0 4.9595844358537723e-06 8.065512693506551e-07 0 7.1173457038624565e-06 9.8326589871880755e-07 0 5.579153654936885e-06 1.0238569512607333e-06 0 6.3259405839327131e-06 7.7974444859494663e-07 0 6.3259405839327131e-06 7.7974444859494663e-07 0 4.6206336421017779e-06 3.35009091990561e-07 0 5.8944072336809613e-06 2.9326777516063605e-07 0 6.3259405839327131e-06 7.7974444859494663e-07 0 4.9595844358537723e-06 8.065512693506551e-07 0 4.6206336421017779e-06 3.35009091990561e-07 0 3.5235978212024879e-06 6.5468310772865986e-07 0 4.9595844358537723e-06 8.065512693506551e-07 0 4.6206336421017779e-06 3.35009091990561e-07 0 3.5235978212024879e-06 6.5468310772865986e-07 0 3.4700741763317048e-06 9.3729353134299455e-09 0 4.6206336421017779e-06 3.35009091990561e-07 0 3.4700741763317048e-06 9.3729353134299455e-09 0 4.6206336421017779e-06 3.35009091990561e-07 0 4.8512498188793696e-06 -2.5201549529765253e-07 0 2.9293109709100546e-06 -5.0030254631019302e-07 0 3.4700741763317048e-06 9.3729353134299455e-09 0 4.8512498188793696e-06 -2.5201549529765253e-07 0 2.9293109709100546e-06 -5.0030254631019302e-07 0 3.358346349451051e-06 -8.6005177325838751e-07 0 4.8512498188793696e-06 -2.5201549529765253e-07 0 6.2730182648288777e-06 7.6012689716540849e-09 0 4.8512498188793696e-06 -2.5201549529765253e-07 0 5.8944072336809613e-06 2.9326777516063605e-07 0 4.6206336421017779e-06 3.35009091990561e-07 0 4.8512498188793696e-06 -2.5201549529765253e-07 0 5.8944072336809613e-06 2.9326777516063605e-07 0 -4.680788337407392e-06 -4.2058928179357e-07 0 -4.3325365192177836e-06 -1.2826265279415877e-06 0 -7.9108542825881669e-06 -3.5971472035011954e-07 0 -4.3325365192177836e-06 -1.2826265279415877e-06 0 -1.9843295154890576e-06 -8.6267492562846087e-07 0 -2.5641851012347196e-06 -1.7443036743094787e-06 0 -4.680788337407392e-06 -4.2058928179357e-07 0 -2.0856549359114184e-06 -1.2749449045533061e-08 0 -1.9843295154890576e-06 -8.6267492562846087e-07 0 -4.680788337407392e-06 -4.2058928179357e-07 0 -4.3325365192177836e-06 -1.2826265279415877e-06 0 -1.9843295154890576e-06 -8.6267492562846087e-07 0 -2.0856549359114184e-06 -1.2749449045533061e-08 0 -9.1118401508172003e-07 -2.3909297260340926e-07 0 -1.9843295154890576e-06 -8.6267492562846087e-07 0 -2.0856549359114184e-06 -1.2749449045533061e-08 0 -1.7561639980027425e-09 7.1823497741012559e-10 0 -9.1118401508172003e-07 -2.3909297260340926e-07 0 -1.7561639980027425e-09 7.1823497741012559e-10 0 -9.1118401508172003e-07 -2.3909297260340926e-07 0 -1.6152124594779215e-09 -6.1161951626832928e-10 0 -9.1118401508172003e-07 -2.3909297260340926e-07 0 -1.6152124594779215e-09 -6.1161951626832928e-10 0 -1.9843295154890576e-06 -8.6267492562846087e-07 0 -1.6152124594779215e-09 -6.1161951626832928e-10 0 -1.9843295154890576e-06 -8.6267492562846087e-07 0 -1.1515771221035529e-06 -1.2018556556433514e-06 0 -1.9843295154890576e-06 -8.6267492562846087e-07 0 -1.1515771221035529e-06 -1.2018556556433514e-06 0 -2.5641851012347196e-06 -1.7443036743094787e-06 0 -1.6152124594779215e-09 -6.1161951626832928e-10 0 -1.3971552937871946e-09 -2.8352438808061665e-10 0 -1.1515771221035529e-06 -1.2018556556433514e-06 0 -1.3971552937871946e-09 -2.8352438808061665e-10 0 -1.1515771221035529e-06 -1.2018556556433514e-06 0 -5.9062844917886905e-10 -9.6975882526325561e-10 0 -1.1515771221035529e-06 -1.2018556556433514e-06 0 -2.5641851012347196e-06 -1.7443036743094787e-06 0 -1.1007126605680687e-06 -1.8459691770119877e-06 0 -2.5641851012347196e-06 -1.7443036743094787e-06 0 -2.286716091205276e-06 -2.2860301773442815e-06 0 -1.1007126605680687e-06 -1.8459691770119877e-06 0 -4.3325365192177836e-06 -1.2826265279415877e-06 0 -2.5641851012347196e-06 -1.7443036743094787e-06 0 -3.9298573818913274e-06 -2.092509972585664e-06 0 -4.3325365192177836e-06 -1.2826265279415877e-06 0 -3.9298573818913274e-06 -2.092509972585664e-06 0 -6.0628332979802439e-06 -1.5579439162898627e-06 0 -3.9298573818913274e-06 -2.092509972585664e-06 0 -2.286716091205276e-06 -2.2860301773442815e-06 0 -2.4815961111690721e-06 -2.4569767820165419e-06 0 -2.5641851012347196e-06 -1.7443036743094787e-06 0 -3.9298573818913274e-06 -2.092509972585664e-06 0 -2.286716091205276e-06 -2.2860301773442815e-06 0 -2.286716091205276e-06 -2.2860301773442815e-06 0 -1.2485979005177643e-06 -2.424082166060394e-06 0 -2.4815961111690721e-06 -2.4569767820165419e-06 0 -1.2485979005177643e-06 -2.424082166060394e-06 0 -1.1007126605680687e-06 -1.8459691770119877e-06 0 -2.057402474205614e-07 -2.1178561584919522e-06 0 -2.286716091205276e-06 -2.2860301773442815e-06 0 -1.2485979005177643e-06 -2.424082166060394e-06 0 -1.1007126605680687e-06 -1.8459691770119877e-06 0 -1.1007126605680687e-06 -1.8459691770119877e-06 0 -5.9062844917886905e-10 -9.6975882526325561e-10 0 -2.5076079802516475e-07 -1.2325831493123752e-06 0 -1.1515771221035529e-06 -1.2018556556433514e-06 0 -1.1007126605680687e-06 -1.8459691770119877e-06 0 -5.9062844917886905e-10 -9.6975882526325561e-10 0 -5.9062844917886905e-10 -9.6975882526325561e-10 0 -2.5076079802516475e-07 -1.2325831493123752e-06 0 -1.7553147830460052e-10 -5.9236928144961065e-10 0 -1.1007126605680687e-06 -1.8459691770119877e-06 0 -2.5076079802516475e-07 -1.2325831493123752e-06 0 -2.057402474205614e-07 -2.1178561584919522e-06 0 -2.5076079802516475e-07 -1.2325831493123752e-06 0 1.6048667811508697e-07 -1.3312065660446994e-06 0 -2.057402474205614e-07 -2.1178561584919522e-06 0 -2.5076079802516475e-07 -1.2325831493123752e-06 0 -1.7553147830460052e-10 -5.9236928144961065e-10 0 1.6048667811508697e-07 -1.3312065660446994e-06 0 -1.7553147830460052e-10 -5.9236928144961065e-10 0 3.3641822133596498e-10 -6.6845275274927658e-10 0 1.6048667811508697e-07 -1.3312065660446994e-06 0 6.4710510616985627e-07 -1.2374845638410673e-06 0 1.6048667811508697e-07 -1.3312065660446994e-06 0 8.0838073541995836e-07 -2.0076529515320095e-06 0 1.6048667811508697e-07 -1.3312065660446994e-06 0 8.0838073541995836e-07 -2.0076529515320095e-06 0 -2.057402474205614e-07 -2.1178561584919522e-06 0 -1.2485979005177643e-06 -2.424082166060394e-06 0 -2.057402474205614e-07 -2.1178561584919522e-06 0 5.3607040715852689e-09 -2.4569158153632166e-06 0 8.0838073541995836e-07 -2.0076529515320095e-06 0 -2.057402474205614e-07 -2.1178561584919522e-06 0 5.3607040715852689e-09 -2.4569158153632166e-06 0 8.0838073541995836e-07 -2.0076529515320095e-06 0 1.4991309371313473e-06 -2.0677356797537421e-06 0 5.3607040715852689e-09 -2.4569158153632166e-06 0 1.4991309371313473e-06 -2.0677356797537421e-06 0 5.3607040715852689e-09 -2.4569158153632166e-06 0 2.0647703178914e-06 -1.8315727244334849e-06 0 5.3607040715852689e-09 -2.4569158153632166e-06 0 2.0647703178914e-06 -1.8315727244334849e-06 0 -9.5624467885284817e-07 -2.2235038600074124e-06 0 4.6277238238820394e-06 -6.5523312765600138e-07 0 2.0647703178914e-06 -1.8315727244334849e-06 0 1.7246281203257209e-06 -1.0732362942508119e-06 0 1.7246281203257209e-06 -1.0732362942508119e-06 0 -1.1198268952751831e-06 -1.2889072645070332e-06 0 -5.9319782563723606e-07 2.1026598021772793e-07 0 1.7246281203257209e-06 -1.0732362942508119e-06 0 -1.1198268952751831e-06 -1.2889072645070332e-06 0 -9.5624467885284817e-07 -2.2235038600074124e-06 0 2.0647703178914e-06 -1.8315727244334849e-06 0 1.7246281203257209e-06 -1.0732362942508119e-06 0 -9.5624467885284817e-07 -2.2235038600074124e-06 0 -1.1198268952751831e-06 -1.2889072645070332e-06 0 -4.1725269560843181e-06 -1.7873844624587024e-06 0 -9.5624467885284817e-07 -2.2235038600074124e-06 0 -1.1198268952751831e-06 -1.2889072645070332e-06 0 -4.1989587521876629e-06 -4.7570634728474082e-07 0 -5.9319782563723606e-07 2.1026598021772793e-07 0 -1.1198268952751831e-06 -1.2889072645070332e-06 0 -4.1989587521876629e-06 -4.7570634728474082e-07 0 -4.1725269560843181e-06 -1.7873844624587024e-06 0 -4.1725269560843181e-06 -1.7873844624587024e-06 0 -9.5624467885284817e-07 -2.2235038600074124e-06 0 -2.4815961111690721e-06 -2.4569767820165419e-06 0 -4.1725269560843181e-06 -1.7873844624587024e-06 0 -2.4815961111690721e-06 -2.4569767820165419e-06 0 -4.8702128783902331e-06 -1.994289351221362e-06 0 5.3607040715852689e-09 -2.4569158153632166e-06 0 -9.5624467885284817e-07 -2.2235038600074124e-06 0 -2.4815961111690721e-06 -2.4569767820165419e-06 0 -1.2485979005177643e-06 -2.424082166060394e-06 0 5.3607040715852689e-09 -2.4569158153632166e-06 0 -2.4815961111690721e-06 -2.4569767820165419e-06 0 -3.9298573818913274e-06 -2.092509972585664e-06 0 -2.4815961111690721e-06 -2.4569767820165419e-06 0 -4.8702128783902331e-06 -1.994289351221362e-06 0 -3.9298573818913274e-06 -2.092509972585664e-06 0 -4.8702128783902331e-06 -1.994289351221362e-06 0 -6.0628332979802439e-06 -1.5579439162898627e-06 0 -4.8702128783902331e-06 -1.994289351221362e-06 0 -7.5127178525126058e-06 -1.1294144261653505e-06 0 -6.0628332979802439e-06 -1.5579439162898627e-06 0 -4.1725269560843181e-06 -1.7873844624587024e-06 0 -4.8702128783902331e-06 -1.994289351221362e-06 0 -7.5127178525126058e-06 -1.1294144261653505e-06 0 -4.1725269560843181e-06 -1.7873844624587024e-06 0 -8.7363950079734459e-06 1.722153877867821e-07 0 -7.5127178525126058e-06 -1.1294144261653505e-06 0 -4.1989587521876629e-06 -4.7570634728474082e-07 0 -4.1725269560843181e-06 -1.7873844624587024e-06 0 -8.7363950079734459e-06 1.722153877867821e-07 0 -8.7363950079734459e-06 1.722153877867821e-07 0 -7.5127178525126058e-06 -1.1294144261653505e-06 0 -1.1677166809035396e-05 4.8587274306840023e-07 0 -7.5127178525126058e-06 -1.1294144261653505e-06 0 -1.1677166809035396e-05 4.8587274306840023e-07 0 -9.1271653758644182e-06 -6.2348212724800046e-07 0 -8.7363950079734459e-06 1.722153877867821e-07 0 -1.1677166809035396e-05 4.8587274306840023e-07 0 -1.454346307316769e-05 2.8280755236793932e-06 0 -1.1677166809035396e-05 4.8587274306840023e-07 0 -1.1792741088133734e-05 6.6757441235484021e-07 0 -1.6320833353861615e-05 2.7486393262888014e-06 0 -1.1677166809035396e-05 4.8587274306840023e-07 0 -1.1792741088133734e-05 6.6757441235484021e-07 0 -9.1271653758644182e-06 -6.2348212724800046e-07 0 -1.1792741088133734e-05 6.6757441235484021e-07 0 -9.1271653758644182e-06 -6.2348212724800046e-07 0 -7.9108542825881669e-06 -3.5971472035011954e-07 0 -7.5127178525126058e-06 -1.1294144261653505e-06 0 -9.1271653758644182e-06 -6.2348212724800046e-07 0 -6.0628332979802439e-06 -1.5579439162898627e-06 0 -9.1271653758644182e-06 -6.2348212724800046e-07 0 -6.0628332979802439e-06 -1.5579439162898627e-06 0 -7.9108542825881669e-06 -3.5971472035011954e-07 0 -4.3325365192177836e-06 -1.2826265279415877e-06 0 -6.0628332979802439e-06 -1.5579439162898627e-06 0 -7.9108542825881669e-06 -3.5971472035011954e-07 0 -2.71903008383814e-05 1.1824344002798521e-05 0 -2.3415250132511134e-05 1.1944056622527049e-05 0 -1.8852279957197258e-05 7.1753501346061187e-06 0 -2.71903008383814e-05 1.1824344002798521e-05 0 -2.3415250132511134e-05 1.1944056622527049e-05 0 -3.3648702725063531e-05 1.943258276332297e-05 0 -2.3415250132511134e-05 1.1944056622527049e-05 0 -1.8852279957197258e-05 7.1753501346061187e-06 0 -1.5941456535117787e-05 9.7611312328396759e-06 0 -2.3415250132511134e-05 1.1944056622527049e-05 0 -1.5941456535117787e-05 9.7611312328396759e-06 0 -2.2879454969355009e-05 1.6605795095130192e-05 0 -2.71903008383814e-05 1.1824344002798521e-05 0 -1.8852279957197258e-05 7.1753501346061187e-06 0 -2.1394840679044321e-05 6.3256435122371831e-06 0 -2.1394840679044321e-05 6.3256435122371831e-06 0 -1.6320833353861615e-05 2.7486393262888014e-06 0 -1.454346307316769e-05 2.8280755236793932e-06 0 -1.1677166809035396e-05 4.8587274306840023e-07 0 -1.6320833353861615e-05 2.7486393262888014e-06 0 -1.454346307316769e-05 2.8280755236793932e-06 0 -1.8852279957197258e-05 7.1753501346061187e-06 0 -2.1394840679044321e-05 6.3256435122371831e-06 0 -1.454346307316769e-05 2.8280755236793932e-06 0 -1.8852279957197258e-05 7.1753501346061187e-06 0 -1.454346307316769e-05 2.8280755236793932e-06 0 -1.0714782266195027e-05 4.0287878383655629e-06 0 -8.7363950079734459e-06 1.722153877867821e-07 0 -6.9289997562680466e-06 1.2928429562528494e-06 0 -1.0714782266195027e-05 4.0287878383655629e-06 0 -8.7363950079734459e-06 1.722153877867821e-07 0 -1.454346307316769e-05 2.8280755236793932e-06 0 -1.0714782266195027e-05 4.0287878383655629e-06 0 -4.1989587521876629e-06 -4.7570634728474082e-07 0 -8.7363950079734459e-06 1.722153877867821e-07 0 -6.9289997562680466e-06 1.2928429562528494e-06 0 -1.0714782266195027e-05 4.0287878383655629e-06 0 -1.5941456535117787e-05 9.7611312328396759e-06 0 -9.8439071370109232e-06 8.879735181109642e-06 0 -1.8852279957197258e-05 7.1753501346061187e-06 0 -1.0714782266195027e-05 4.0287878383655629e-06 0 -1.5941456535117787e-05 9.7611312328396759e-06 0 -1.5941456535117787e-05 9.7611312328396759e-06 0 -9.8439071370109232e-06 8.879735181109642e-06 0 -1.4153966996366871e-05 1.5150364936182792e-05 0 -9.8439071370109232e-06 8.879735181109642e-06 0 -4.1147254245076206e-06 5.3168709369866362e-06 0 -4.1664625751912051e-06 1.2523093031526024e-05 0 -4.1147254245076206e-06 5.3168709369866362e-06 0 6.8475138356329578e-07 6.9124591030244825e-06 0 -4.1664625751912051e-06 1.2523093031526024e-05 0 -4.1147254245076206e-06 5.3168709369866362e-06 0 1.4423461482370632e-08 2.8315325362631835e-06 0 6.8475138356329578e-07 6.9124591030244825e-06 0 -1.0714782266195027e-05 4.0287878383655629e-06 0 -9.8439071370109232e-06 8.879735181109642e-06 0 -4.1147254245076206e-06 5.3168709369866362e-06 0 -1.0714782266195027e-05 4.0287878383655629e-06 0 -4.1147254245076206e-06 5.3168709369866362e-06 0 -3.939784072405837e-06 2.066000231734078e-06 0 -6.9289997562680466e-06 1.2928429562528494e-06 0 -1.0714782266195027e-05 4.0287878383655629e-06 0 -3.939784072405837e-06 2.066000231734078e-06 0 -4.1989587521876629e-06 -4.7570634728474082e-07 0 -6.9289997562680466e-06 1.2928429562528494e-06 0 -3.939784072405837e-06 2.066000231734078e-06 0 -4.1989587521876629e-06 -4.7570634728474082e-07 0 -3.939784072405837e-06 2.066000231734078e-06 0 -5.9319782563723606e-07 2.1026598021772793e-07 0 -3.939784072405837e-06 2.066000231734078e-06 0 -5.9319782563723606e-07 2.1026598021772793e-07 0 1.4423461482370632e-08 2.8315325362631835e-06 0 -4.1147254245076206e-06 5.3168709369866362e-06 0 -3.939784072405837e-06 2.066000231734078e-06 0 1.4423461482370632e-08 2.8315325362631835e-06 0 -5.9319782563723606e-07 2.1026598021772793e-07 0 1.4423461482370632e-08 2.8315325362631835e-06 0 2.8468980224542888e-06 1.0367949121896119e-06 0 1.4423461482370632e-08 2.8315325362631835e-06 0 2.8468980224542888e-06 1.0367949121896119e-06 0 4.2531063937955026e-06 4.2164141274452743e-06 0 1.7246281203257209e-06 -1.0732362942508119e-06 0 -5.9319782563723606e-07 2.1026598021772793e-07 0 2.8468980224542888e-06 1.0367949121896119e-06 0 2.8468980224542888e-06 1.0367949121896119e-06 0 4.6069044969873568e-06 2.4030216700752067e-07 0 6.2668260470031467e-06 2.0882993098754199e-06 0 1.7246281203257209e-06 -1.0732362942508119e-06 0 2.8468980224542888e-06 1.0367949121896119e-06 0 4.6069044969873568e-06 2.4030216700752067e-07 0 2.8468980224542888e-06 1.0367949121896119e-06 0 4.2531063937955026e-06 4.2164141274452743e-06 0 6.2668260470031467e-06 2.0882993098754199e-06 0 4.2531063937955026e-06 4.2164141274452743e-06 0 6.2668260470031467e-06 2.0882993098754199e-06 0 9.1162740601616603e-06 5.5249426314415333e-06 0 1.4423461482370632e-08 2.8315325362631835e-06 0 4.2531063937955026e-06 4.2164141274452743e-06 0 6.8475138356329578e-07 6.9124591030244825e-06 0 4.2531063937955026e-06 4.2164141274452743e-06 0 6.8475138356329578e-07 6.9124591030244825e-06 0 5.4129976422605518e-06 9.3124447306621327e-06 0 4.2531063937955026e-06 4.2164141274452743e-06 0 5.4129976422605518e-06 9.3124447306621327e-06 0 9.1162740601616603e-06 5.5249426314415333e-06 0 5.4129976422605518e-06 9.3124447306621327e-06 0 9.2997632856851421e-06 1.3911536319684591e-05 0 1.246031045044416e-05 9.6700353807530934e-06 0 5.4129976422605518e-06 9.3124447306621327e-06 0 9.1162740601616603e-06 5.5249426314415333e-06 0 1.246031045044416e-05 9.6700353807530934e-06 0 5.4129976422605518e-06 9.3124447306621327e-06 0 2.6102697524070406e-06 1.606360138913009e-05 0 -4.1664625751912051e-06 1.2523093031526024e-05 0 6.8475138356329578e-07 6.9124591030244825e-06 0 5.4129976422605518e-06 9.3124447306621327e-06 0 -4.1664625751912051e-06 1.2523093031526024e-05 0 5.4129976422605518e-06 9.3124447306621327e-06 0 2.6102697524070406e-06 1.606360138913009e-05 0 9.2997632856851421e-06 1.3911536319684591e-05 0 9.2997632856851421e-06 1.3911536319684591e-05 0 7.0535791375518264e-06 2.2765360818267987e-05 0 1.6179574495290318e-05 1.5794450069645447e-05 0 7.0535791375518264e-06 2.2765360818267987e-05 0 1.6179574495290318e-05 1.5794450069645447e-05 0 1.5195092633305827e-05 3.1228195170657494e-05 0 7.0535791375518264e-06 2.2765360818267987e-05 0 6.987133141044212e-06 3.4949754648610441e-05 0 1.5195092633305827e-05 3.1228195170657494e-05 0 7.0535791375518264e-06 2.2765360818267987e-05 0 -1.9960645152395383e-06 3.7624395942715712e-05 0 6.987133141044212e-06 3.4949754648610441e-05 0 2.6102697524070406e-06 1.606360138913009e-05 0 7.0535791375518264e-06 2.2765360818267987e-05 0 -5.3475104809221029e-06 2.4702456497209057e-05 0 2.6102697524070406e-06 1.606360138913009e-05 0 9.2997632856851421e-06 1.3911536319684591e-05 0 7.0535791375518264e-06 2.2765360818267987e-05 0 7.0535791375518264e-06 2.2765360818267987e-05 0 -5.3475104809221029e-06 2.4702456497209057e-05 0 -1.9960645152395383e-06 3.7624395942715712e-05 0 -5.3475104809221029e-06 2.4702456497209057e-05 0 -1.4422150776504915e-05 3.9114199017914418e-05 0 -1.9960645152395383e-06 3.7624395942715712e-05 0 -5.3475104809221029e-06 2.4702456497209057e-05 0 -1.2905709416572046e-05 2.2702507684959096e-05 0 -1.4422150776504915e-05 3.9114199017914418e-05 0 -5.3475104809221029e-06 2.4702456497209057e-05 0 -4.1664625751912051e-06 1.2523093031526024e-05 0 -1.2905709416572046e-05 2.2702507684959096e-05 0 -4.1664625751912051e-06 1.2523093031526024e-05 0 -1.4153966996366871e-05 1.5150364936182792e-05 0 -1.2905709416572046e-05 2.2702507684959096e-05 0 2.6102697524070406e-06 1.606360138913009e-05 0 -5.3475104809221029e-06 2.4702456497209057e-05 0 -4.1664625751912051e-06 1.2523093031526024e-05 0 -9.8439071370109232e-06 8.879735181109642e-06 0 -4.1664625751912051e-06 1.2523093031526024e-05 0 -1.4153966996366871e-05 1.5150364936182792e-05 0 -1.5941456535117787e-05 9.7611312328396759e-06 0 -1.4153966996366871e-05 1.5150364936182792e-05 0 -2.2879454969355009e-05 1.6605795095130192e-05 0 -1.4153966996366871e-05 1.5150364936182792e-05 0 -2.110047821344129e-05 2.3658146505933639e-05 0 -2.2879454969355009e-05 1.6605795095130192e-05 0 -1.4153966996366871e-05 1.5150364936182792e-05 0 -2.110047821344129e-05 2.3658146505933639e-05 0 -1.2905709416572046e-05 2.2702507684959096e-05 0 -2.110047821344129e-05 2.3658146505933639e-05 0 -1.2905709416572046e-05 2.2702507684959096e-05 0 -2.20221859279646e-05 3.2842605158683434e-05 0 -1.2905709416572046e-05 2.2702507684959096e-05 0 -2.20221859279646e-05 3.2842605158683434e-05 0 -1.4422150776504915e-05 3.9114199017914418e-05 0 -2.20221859279646e-05 3.2842605158683434e-05 0 -3.1535928775648121e-05 3.358578926844802e-05 0 -3.1183835687472242e-05 4.7869335886364653e-05 0 -2.20221859279646e-05 3.2842605158683434e-05 0 -3.1183835687472242e-05 4.7869335886364653e-05 0 -1.4422150776504915e-05 3.9114199017914418e-05 0 -2.110047821344129e-05 2.3658146505933639e-05 0 -2.20221859279646e-05 3.2842605158683434e-05 0 -3.1535928775648121e-05 3.358578926844802e-05 0 -2.110047821344129e-05 2.3658146505933639e-05 0 -3.1535928775648121e-05 3.358578926844802e-05 0 -2.9915415834896272e-05 2.4121082488062674e-05 0 -3.1535928775648121e-05 3.358578926844802e-05 0 -4.6486822878321399e-05 4.3741330761649393e-05 0 -3.1183835687472242e-05 4.7869335886364653e-05 0 -3.1535928775648121e-05 3.358578926844802e-05 0 -4.0347229635547013e-05 3.0139121368912564e-05 0 -4.6486822878321399e-05 4.3741330761649393e-05 0 -3.1535928775648121e-05 3.358578926844802e-05 0 -4.0347229635547013e-05 3.0139121368912564e-05 0 -2.9915415834896272e-05 2.4121082488062674e-05 0 -4.0347229635547013e-05 3.0139121368912564e-05 0 -2.9915415834896272e-05 2.4121082488062674e-05 0 -3.3648702725063531e-05 1.943258276332297e-05 0 -2.9915415834896272e-05 2.4121082488062674e-05 0 -2.2879454969355009e-05 1.6605795095130192e-05 0 -3.3648702725063531e-05 1.943258276332297e-05 0 -2.110047821344129e-05 2.3658146505933639e-05 0 -2.9915415834896272e-05 2.4121082488062674e-05 0 -2.2879454969355009e-05 1.6605795095130192e-05 0 -2.3415250132511134e-05 1.1944056622527049e-05 0 -2.2879454969355009e-05 1.6605795095130192e-05 0 -3.3648702725063531e-05 1.943258276332297e-05 0 1.114614410062764e-05 2.1963850613141516e-06 0 1.1023759234594368e-05 2.4890610426519629e-06 0 1.2478022594898481e-05 3.2533209622472162e-06 0 1.1023759234594368e-05 2.4890610426519629e-06 0 1.2478022594898481e-05 3.2533209622472162e-06 0 1.3103188358372991e-05 4.3016934212786361e-06 0 1.2478022594898481e-05 3.2533209622472162e-06 0 1.3103188358372991e-05 4.3016934212786361e-06 0 1.4570384302694862e-05 5.008237665944038e-06 0 1.114614410062764e-05 2.1963850613141516e-06 0 1.2478022594898481e-05 3.2533209622472162e-06 0 1.1997852011227465e-05 2.0714703614316712e-06 0 1.1997852011227465e-05 2.0714703614316712e-06 0 1.0207590009626422e-05 1.1730299075106251e-06 0 1.0823025183112885e-05 2.3300476214598753e-07 0 1.114614410062764e-05 2.1963850613141516e-06 0 1.1997852011227465e-05 2.0714703614316712e-06 0 1.0207590009626422e-05 1.1730299075106251e-06 0 9.5453355688513361e-06 -8.3741708192570263e-08 0 1.0207590009626422e-05 1.1730299075106251e-06 0 1.0823025183112885e-05 2.3300476214598753e-07 0 1.114614410062764e-05 2.1963850613141516e-06 0 1.0207590009626422e-05 1.1730299075106251e-06 0 9.7243242716296867e-06 1.5792587716660141e-06 0 1.0207590009626422e-05 1.1730299075106251e-06 0 8.5735376513343566e-06 9.6642248671857427e-07 0 9.7243242716296867e-06 1.5792587716660141e-06 0 8.5623780458215578e-06 3.6369799325211605e-07 0 1.0207590009626422e-05 1.1730299075106251e-06 0 8.5735376513343566e-06 9.6642248671857427e-07 0 7.1173457038624565e-06 9.8326589871880755e-07 0 8.5735376513343566e-06 9.6642248671857427e-07 0 8.1797191550165645e-06 1.064493301104471e-06 0 8.5735376513343566e-06 9.6642248671857427e-07 0 8.1797191550165645e-06 1.064493301104471e-06 0 9.7243242716296867e-06 1.5792587716660141e-06 0 8.1797191550165645e-06 1.064493301104471e-06 0 9.7243242716296867e-06 1.5792587716660141e-06 0 9.0008725682203523e-06 1.2627405388530213e-06 0 1.114614410062764e-05 2.1963850613141516e-06 0 1.1023759234594368e-05 2.4890610426519629e-06 0 9.7243242716296867e-06 1.5792587716660141e-06 0 1.1023759234594368e-05 2.4890610426519629e-06 0 9.7243242716296867e-06 1.5792587716660141e-06 0 9.0008725682203523e-06 1.2627405388530213e-06 0 1.1023759234594368e-05 2.4890610426519629e-06 0 9.0008725682203523e-06 1.2627405388530213e-06 0 9.1147535280345551e-06 1.5065495765724125e-06 0 8.0240917338101095e-06 7.8496550625474921e-07 0 9.0008725682203523e-06 1.2627405388530213e-06 0 9.1147535280345551e-06 1.5065495765724125e-06 0 6.3801089292258976e-06 -1.3645986823961926e-07 0 9.1147535280345551e-06 1.5065495765724125e-06 0 6.9585674044386442e-06 7.6164443513357517e-07 0 9.1147535280345551e-06 1.5065495765724125e-06 0 9.3260931511702153e-06 2.8533219929071579e-06 0 1.1060463460922296e-05 3.1354145348060896e-06 0 9.1147535280345551e-06 1.5065495765724125e-06 0 6.9585674044386442e-06 7.6164443513357517e-07 0 9.3260931511702153e-06 2.8533219929071579e-06 0 1.1023759234594368e-05 2.4890610426519629e-06 0 9.1147535280345551e-06 1.5065495765724125e-06 0 1.1060463460922296e-05 3.1354145348060896e-06 0 4.6069044969873568e-06 2.4030216700752067e-07 0 6.9585674044386442e-06 7.6164443513357517e-07 0 6.2668260470031467e-06 2.0882993098754199e-06 0 6.9585674044386442e-06 7.6164443513357517e-07 0 6.2668260470031467e-06 2.0882993098754199e-06 0 9.3260931511702153e-06 2.8533219929071579e-06 0 6.2668260470031467e-06 2.0882993098754199e-06 0 9.3260931511702153e-06 2.8533219929071579e-06 0 9.1162740601616603e-06 5.5249426314415333e-06 0 9.3260931511702153e-06 2.8533219929071579e-06 0 1.2815687993076329e-05 5.653474039461332e-06 0 9.1162740601616603e-06 5.5249426314415333e-06 0 1.2815687993076329e-05 5.653474039461332e-06 0 9.1162740601616603e-06 5.5249426314415333e-06 0 1.246031045044416e-05 9.6700353807530934e-06 0 1.1023759234594368e-05 2.4890610426519629e-06 0 1.1060463460922296e-05 3.1354145348060896e-06 0 1.3103188358372991e-05 4.3016934212786361e-06 0 9.3260931511702153e-06 2.8533219929071579e-06 0 1.2815687993076329e-05 5.653474039461332e-06 0 1.1060463460922296e-05 3.1354145348060896e-06 0 1.2815687993076329e-05 5.653474039461332e-06 0 1.1060463460922296e-05 3.1354145348060896e-06 0 1.3103188358372991e-05 4.3016934212786361e-06 0 1.2815687993076329e-05 5.653474039461332e-06 0 1.3103188358372991e-05 4.3016934212786361e-06 0 1.5399128678770513e-05 6.7180193219223401e-06 0 1.3103188358372991e-05 4.3016934212786361e-06 0 1.5399128678770513e-05 6.7180193219223401e-06 0 1.4570384302694862e-05 5.008237665944038e-06 0 1.2815687993076329e-05 5.653474039461332e-06 0 1.5399128678770513e-05 6.7180193219223401e-06 0 1.8279481077216172e-05 1.0496721719300002e-05 0 1.5399128678770513e-05 6.7180193219223401e-06 0 1.8279481077216172e-05 1.0496721719300002e-05 0 1.7449750858007665e-05 7.4935678476074502e-06 0 1.7449750858007665e-05 7.4935678476074502e-06 0 1.5255592493994112e-05 4.4281516991029446e-06 0 1.4570384302694862e-05 5.008237665944038e-06 0 1.5399128678770513e-05 6.7180193219223401e-06 0 1.7449750858007665e-05 7.4935678476074502e-06 0 1.4570384302694862e-05 5.008237665944038e-06 0 1.2815687993076329e-05 5.653474039461332e-06 0 1.246031045044416e-05 9.6700353807530934e-06 0 1.8279481077216172e-05 1.0496721719300002e-05 0 1.246031045044416e-05 9.6700353807530934e-06 0 1.8279481077216172e-05 1.0496721719300002e-05 0 1.6179574495290318e-05 1.5794450069645447e-05 0 9.2997632856851421e-06 1.3911536319684591e-05 0 1.246031045044416e-05 9.6700353807530934e-06 0 1.6179574495290318e-05 1.5794450069645447e-05 0 1.8279481077216172e-05 1.0496721719300002e-05 0 1.6179574495290318e-05 1.5794450069645447e-05 0 2.7586433613545819e-05 1.7229245227506067e-05 0 1.6179574495290318e-05 1.5794450069645447e-05 0 2.7586433613545819e-05 1.7229245227506067e-05 0 1.5195092633305827e-05 3.1228195170657494e-05 0 1.8279481077216172e-05 1.0496721719300002e-05 0 2.0304344591191811e-05 1.0262522980258542e-05 0 2.7586433613545819e-05 1.7229245227506067e-05 0 1.7449750858007665e-05 7.4935678476074502e-06 0 2.0304344591191811e-05 1.0262522980258542e-05 0 1.6485669325456153e-05 4.558272612440515e-06 0 1.7449750858007665e-05 7.4935678476074502e-06 0 1.6485669325456153e-05 4.558272612440515e-06 0 1.5255592493994112e-05 4.4281516991029446e-06 0 1.8279481077216172e-05 1.0496721719300002e-05 0 1.7449750858007665e-05 7.4935678476074502e-06 0 2.0304344591191811e-05 1.0262522980258542e-05 0 2.0304344591191811e-05 1.0262522980258542e-05 0 1.6485669325456153e-05 4.558272612440515e-06 0 1.7750436639248563e-05 1.7922837008276149e-06 0 1.6485669325456153e-05 4.558272612440515e-06 0 1.5753791049716633e-05 -2.488365536157685e-06 0 1.7750436639248563e-05 1.7922837008276149e-06 0 1.6485669325456153e-05 4.558272612440515e-06 0 1.4004282049961893e-05 8.5741313714459154e-07 0 1.5753791049716633e-05 -2.488365536157685e-06 0 1.6485669325456153e-05 4.558272612440515e-06 0 1.4004282049961893e-05 8.5741313714459154e-07 0 1.5255592493994112e-05 4.4281516991029446e-06 0 1.5255592493994112e-05 4.4281516991029446e-06 0 1.3583748594897314e-05 3.2024706393495351e-06 0 1.4570384302694862e-05 5.008237665944038e-06 0 1.4004282049961893e-05 8.5741313714459154e-07 0 1.5255592493994112e-05 4.4281516991029446e-06 0 1.3583748594897314e-05 3.2024706393495351e-06 0 1.4004282049961893e-05 8.5741313714459154e-07 0 1.3583748594897314e-05 3.2024706393495351e-06 0 1.2347519600459039e-05 4.8657630473604637e-07 0 1.1997852011227465e-05 2.0714703614316712e-06 0 1.3583748594897314e-05 3.2024706393495351e-06 0 1.2347519600459039e-05 4.8657630473604637e-07 0 1.2478022594898481e-05 3.2533209622472162e-06 0 1.1997852011227465e-05 2.0714703614316712e-06 0 1.3583748594897314e-05 3.2024706393495351e-06 0 1.2478022594898481e-05 3.2533209622472162e-06 0 1.3583748594897314e-05 3.2024706393495351e-06 0 1.4570384302694862e-05 5.008237665944038e-06 0 1.1997852011227465e-05 2.0714703614316712e-06 0 1.0823025183112885e-05 2.3300476214598753e-07 0 1.2347519600459039e-05 4.8657630473604637e-07 0 1.0768620919037341e-05 -2.2028339032453623e-06 0 1.0823025183112885e-05 2.3300476214598753e-07 0 1.2347519600459039e-05 4.8657630473604637e-07 0 1.4004282049961893e-05 8.5741313714459154e-07 0 1.2235695687222396e-05 -2.8424761669905399e-06 0 1.4123434177313897e-05 -6.6520795680271413e-06 0 1.0768620919037341e-05 -2.2028339032453623e-06 0 1.1128907390018399e-05 -5.4088391133093141e-06 0 1.2235695687222396e-05 -2.8424761669905399e-06 0 1.0768620919037341e-05 -2.2028339032453623e-06 0 1.2347519600459039e-05 4.8657630473604637e-07 0 1.2235695687222396e-05 -2.8424761669905399e-06 0 1.4004282049961893e-05 8.5741313714459154e-07 0 1.2347519600459039e-05 4.8657630473604637e-07 0 1.2235695687222396e-05 -2.8424761669905399e-06 0 1.1128907390018399e-05 -5.4088391133093141e-06 0 1.2235695687222396e-05 -2.8424761669905399e-06 0 1.25425219191178e-05 -8.0784093462295911e-06 0 1.2235695687222396e-05 -2.8424761669905399e-06 0 1.4123434177313897e-05 -6.6520795680271413e-06 0 1.25425219191178e-05 -8.0784093462295911e-06 0 1.4123434177313897e-05 -6.6520795680271413e-06 0 1.25425219191178e-05 -8.0784093462295911e-06 0 1.5297018839860949e-05 -1.1350884536850793e-05 0 1.4123434177313897e-05 -6.6520795680271413e-06 0 1.5297018839860949e-05 -1.1350884536850793e-05 0 1.7096944649604979e-05 -1.0829289352369541e-05 0 1.25425219191178e-05 -8.0784093462295911e-06 0 1.3554903849570148e-05 -1.1896891480319104e-05 0 1.5297018839860949e-05 -1.1350884536850793e-05 0 1.3554903849570148e-05 -1.1896891480319104e-05 0 1.5297018839860949e-05 -1.1350884536850793e-05 0 1.7314298950082294e-05 -1.5947900595942522e-05 0 1.5297018839860949e-05 -1.1350884536850793e-05 0 1.7314298950082294e-05 -1.5947900595942522e-05 0 1.7096944649604979e-05 -1.0829289352369541e-05 0 1.3554903849570148e-05 -1.1896891480319104e-05 0 1.7314298950082294e-05 -1.5947900595942522e-05 0 1.4458360485980018e-05 -1.5237612223327063e-05 0 2.2006378080096506e-05 -1.413028211034152e-05 0 2.4730021404360786e-05 -1.8508737766299173e-05 0 2.1340469731069924e-05 -1.7420921663658041e-05 0 1.7096944649604979e-05 -1.0829289352369541e-05 0 2.2006378080096506e-05 -1.413028211034152e-05 0 2.1340469731069924e-05 -1.7420921663658041e-05 0 1.7314298950082294e-05 -1.5947900595942522e-05 0 1.7096944649604979e-05 -1.0829289352369541e-05 0 2.1340469731069924e-05 -1.7420921663658041e-05 0 1.7096944649604979e-05 -1.0829289352369541e-05 0 1.8746928986585103e-05 -5.9065877232474225e-06 0 2.2006378080096506e-05 -1.413028211034152e-05 0 1.4004282049961893e-05 8.5741313714459154e-07 0 1.4123434177313897e-05 -6.6520795680271413e-06 0 1.5753791049716633e-05 -2.488365536157685e-06 0 1.7096944649604979e-05 -1.0829289352369541e-05 0 1.5753791049716633e-05 -2.488365536157685e-06 0 1.8746928986585103e-05 -5.9065877232474225e-06 0 1.4123434177313897e-05 -6.6520795680271413e-06 0 1.7096944649604979e-05 -1.0829289352369541e-05 0 1.5753791049716633e-05 -2.488365536157685e-06 0 1.5753791049716633e-05 -2.488365536157685e-06 0 1.7750436639248563e-05 1.7922837008276149e-06 0 1.8746928986585103e-05 -5.9065877232474225e-06 0 2.0304344591191811e-05 1.0262522980258542e-05 0 1.7750436639248563e-05 1.7922837008276149e-06 0 2.0992442182833048e-05 1.9393589502053754e-06 0 1.7750436639248563e-05 1.7922837008276149e-06 0 2.0992442182833048e-05 1.9393589502053754e-06 0 1.8746928986585103e-05 -5.9065877232474225e-06 0 2.0304344591191811e-05 1.0262522980258542e-05 0 2.0992442182833048e-05 1.9393589502053754e-06 0 2.7586433613545819e-05 1.7229245227506067e-05 0 2.0992442182833048e-05 1.9393589502053754e-06 0 3.0273566339399774e-05 -5.4313073911349309e-06 0 2.4635186110055573e-05 -1.0719804614844407e-05 0 2.0992442182833048e-05 1.9393589502053754e-06 0 1.8746928986585103e-05 -5.9065877232474225e-06 0 2.4635186110055573e-05 -1.0719804614844407e-05 0 2.7586433613545819e-05 1.7229245227506067e-05 0 2.218733901478986e-05 5.2686513297334945e-05 0 1.5195092633305827e-05 3.1228195170657494e-05 0 2.0992442182833048e-05 1.9393589502053754e-06 0 2.7586433613545819e-05 1.7229245227506067e-05 0 3.0273566339399774e-05 -5.4313073911349309e-06 0 1.1118380122272307e-05 1.4388733290038515e-05 0 4.0348205520100871e-05 2.439034104748517e-05 0 2.7586433613545819e-05 1.7229245227506067e-05 0 3.9603150467957891e-05 5.1102733273519541e-05 0 2.218733901478986e-05 5.2686513297334945e-05 0 2.218733901478986e-05 5.2686513297334945e-05 0 4.5196868047391202e-05 7.4499608624784285e-05 0 2.141181703670558e-05 7.2508937340841193e-05 0 4.0348205520100871e-05 2.439034104748517e-05 0 3.6898764464812591e-05 3.0345100616954345e-05 0 3.0273566339399774e-05 -5.4313073911349309e-06 0 3.0480907329124654e-05 -1.3535743679541463e-05 0 2.4635186110055573e-05 -1.0719804614844407e-05 0 3.9603150467957891e-05 5.1102733273519541e-05 0 2.218733901478986e-05 5.2686513297334945e-05 0 4.5196868047391202e-05 7.4499608624784285e-05 0 3.6898764464812591e-05 3.0345100616954345e-05 0 4.0751523931157231e-05 3.8875965725313082e-05 0 3.0480907329124654e-05 -1.3535743679541463e-05 0 2.735900726046283e-05 -1.6920791369099324e-05 0 3.0910919507518684e-05 -1.7820314400282788e-05 0 4.5196868047391202e-05 7.4499608624784285e-05 0 3.4531521506897364e-05 8.8447556985207226e-05 0 2.141181703670558e-05 7.2508937340841193e-05 0 1.8746928986585103e-05 -5.9065877232474225e-06 0 2.4635186110055573e-05 -1.0719804614844407e-05 0 2.2006378080096506e-05 -1.413028211034152e-05 0 3.0480907329124654e-05 -1.3535743679541463e-05 0 2.4635186110055573e-05 -1.0719804614844407e-05 0 2.735900726046283e-05 -1.6920791369099324e-05 0 2.4635186110055573e-05 -1.0719804614844407e-05 0 2.735900726046283e-05 -1.6920791369099324e-05 0 2.2006378080096506e-05 -1.413028211034152e-05 0 2.735900726046283e-05 -1.6920791369099324e-05 0 2.2006378080096506e-05 -1.413028211034152e-05 0 2.4730021404360786e-05 -1.8508737766299173e-05 0 2.735900726046283e-05 -1.6920791369099324e-05 0 2.4730021404360786e-05 -1.8508737766299173e-05 0 2.8566194879079929e-05 -2.0776376311388293e-05 0 2.735900726046283e-05 -1.6920791369099324e-05 0 2.8566194879079929e-05 -2.0776376311388293e-05 0 3.0910919507518684e-05 -1.7820314400282788e-05 0 2.8566194879079929e-05 -2.0776376311388293e-05 0 3.0910919507518684e-05 -1.7820314400282788e-05 0 3.2049072341543242e-05 -2.0301323650393599e-05 0 2.4730021404360786e-05 -1.8508737766299173e-05 0 2.8566194879079929e-05 -2.0776376311388293e-05 0 2.5224776997603632e-05 -2.1110447164564162e-05 0 3.4531521506897364e-05 8.8447556985207226e-05 0 3.7887237108234263e-05 0.0001018821692000721 0 2.1064266958341528e-05 9.4995742866495078e-05 0 3.4531521506897364e-05 8.8447556985207226e-05 0 4.9454597748337093e-05 9.5227797734235238e-05 0 3.7887237108234263e-05 0.0001018821692000721 0 4.5196868047391202e-05 7.4499608624784285e-05 0 3.4531521506897364e-05 8.8447556985207226e-05 0 4.9454597748337093e-05 9.5227797734235238e-05 0 4.0751523931157231e-05 3.8875965725313082e-05 0 4.2615794263859026e-05 4.7628163788702428e-05 0 4.9454597748337093e-05 9.5227797734235238e-05 0 3.7887237108234263e-05 0.0001018821692000721 0 5.3004605747343333e-05 0.00011559808318363778 0 3.7887237108234263e-05 0.0001018821692000721 0 5.3004605747343333e-05 0.00011559808318363778 0 3.1569459724631087e-05 0.00011359017841099313 0 5.3004605747343333e-05 0.00011559808318363778 0 3.8834341949452289e-05 0.00012720274341772474 0 3.1569459724631087e-05 0.00011359017841099313 0 5.3004605747343333e-05 0.00011559808318363778 0 5.6281964818696106e-05 0.00013573024677911906 0 3.8834341949452289e-05 0.00012720274341772474 0 3.2049072341543242e-05 -2.0301323650393599e-05 0 3.3552961303166674e-05 -2.1849401571869918e-05 0 3.1144589574695283e-05 -2.2668838210497255e-05 0 4.2615794263859026e-05 4.7628163788702428e-05 0 4.5038184789716391e-05 5.6925511780574524e-05 0 5.6281964818696106e-05 0.00013573024677911906 0 3.8834341949452289e-05 0.00012720274341772474 0 3.5638905660868796e-05 0.00014131050428719635 0 2.8566194879079929e-05 -2.0776376311388293e-05 0 2.8290202191301366e-05 -2.3141729687672807e-05 0 3.1144589574695283e-05 -2.2668838210497255e-05 0 2.8566194879079929e-05 -2.0776376311388293e-05 0 2.8290202191301366e-05 -2.3141729687672807e-05 0 2.5224776997603632e-05 -2.1110447164564162e-05 0 2.8566194879079929e-05 -2.0776376311388293e-05 0 3.2049072341543242e-05 -2.0301323650393599e-05 0 3.1144589574695283e-05 -2.2668838210497255e-05 0 2.8290202191301366e-05 -2.3141729687672807e-05 0 3.1144589574695283e-05 -2.2668838210497255e-05 0 2.9598137647290674e-05 -2.4769031285333444e-05 0 3.1144589574695283e-05 -2.2668838210497255e-05 0 2.9598137647290674e-05 -2.4769031285333444e-05 0 3.304429953412689e-05 -2.4382742809338735e-05 0 2.8290202191301366e-05 -2.3141729687672807e-05 0 2.9598137647290674e-05 -2.4769031285333444e-05 0 2.4943346802580666e-05 -2.3594835089633052e-05 0 2.9598137647290674e-05 -2.4769031285333444e-05 0 2.4943346802580666e-05 -2.3594835089633052e-05 0 2.8358595376540344e-05 -2.610256148825139e-05 0 2.8290202191301366e-05 -2.3141729687672807e-05 0 2.4943346802580666e-05 -2.3594835089633052e-05 0 2.5224776997603632e-05 -2.1110447164564162e-05 0 2.4943346802580666e-05 -2.3594835089633052e-05 0 1.9768595888504845e-05 -2.0428060922755977e-05 0 2.2228163901323823e-05 -2.0696368465839156e-05 0 2.4943346802580666e-05 -2.3594835089633052e-05 0 2.5224776997603632e-05 -2.1110447164564162e-05 0 2.2228163901323823e-05 -2.0696368465839156e-05 0 2.4943346802580666e-05 -2.3594835089633052e-05 0 2.0999412014439527e-05 -2.2944710024005118e-05 0 2.4910627809967774e-05 -2.6195723452405112e-05 0 2.0999412014439527e-05 -2.2944710024005118e-05 0 2.4910627809967774e-05 -2.6195723452405112e-05 0 2.0113464817979925e-05 -2.4093448315985821e-05 0 2.0999412014439527e-05 -2.2944710024005118e-05 0 1.9768595888504845e-05 -2.0428060922755977e-05 0 1.7766289055820501e-05 -2.1112837625453282e-05 0 2.4943346802580666e-05 -2.3594835089633052e-05 0 2.0999412014439527e-05 -2.2944710024005118e-05 0 1.9768595888504845e-05 -2.0428060922755977e-05 0 1.7314298950082294e-05 -1.5947900595942522e-05 0 1.9768595888504845e-05 -2.0428060922755977e-05 0 2.2228163901323823e-05 -2.0696368465839156e-05 0 1.9768595888504845e-05 -2.0428060922755977e-05 0 1.6817473678338386e-05 -1.8344673399014633e-05 0 1.7766289055820501e-05 -2.1112837625453282e-05 0 1.7314298950082294e-05 -1.5947900595942522e-05 0 1.9768595888504845e-05 -2.0428060922755977e-05 0 1.6817473678338386e-05 -1.8344673399014633e-05 0 1.7314298950082294e-05 -1.5947900595942522e-05 0 1.4458360485980018e-05 -1.5237612223327063e-05 0 1.6817473678338386e-05 -1.8344673399014633e-05 0 1.7314298950082294e-05 -1.5947900595942522e-05 0 2.1340469731069924e-05 -1.7420921663658041e-05 0 2.2228163901323823e-05 -2.0696368465839156e-05 0 2.4730021404360786e-05 -1.8508737766299173e-05 0 2.1340469731069924e-05 -1.7420921663658041e-05 0 2.5224776997603632e-05 -2.1110447164564162e-05 0 2.1340469731069924e-05 -1.7420921663658041e-05 0 2.5224776997603632e-05 -2.1110447164564162e-05 0 2.2228163901323823e-05 -2.0696368465839156e-05 0 -5.5851479669787788e-05 7.8424811741594386e-05 0 -3.9536191987539333e-05 8.520410138031188e-05 0 -4.1077011561649363e-05 6.7284601495714796e-05 0 -5.5851479669787788e-05 7.8424811741594386e-05 0 -3.9536191987539333e-05 8.520410138031188e-05 0 -5.869768163214676e-05 9.8156759314126332e-05 0 -3.9536191987539333e-05 8.520410138031188e-05 0 -4.1077011561649363e-05 6.7284601495714796e-05 0 -2.8102286055450431e-05 6.7334546913375661e-05 0 -5.5851479669787788e-05 7.8424811741594386e-05 0 -4.1077011561649363e-05 6.7284601495714796e-05 0 -5.1477609407129742e-05 5.990692916377506e-05 0 -5.1477609407129742e-05 5.990692916377506e-05 0 -4.6486822878321399e-05 4.3741330761649393e-05 0 -3.1183835687472242e-05 4.7869335886364653e-05 0 -4.1077011561649363e-05 6.7284601495714796e-05 0 -3.1183835687472242e-05 4.7869335886364653e-05 0 -2.8102286055450431e-05 6.7334546913375661e-05 0 -4.1077011561649363e-05 6.7284601495714796e-05 0 -5.1477609407129742e-05 5.990692916377506e-05 0 -3.1183835687472242e-05 4.7869335886364653e-05 0 -3.1183835687472242e-05 4.7869335886364653e-05 0 -1.907399805632629e-05 5.57486151213539e-05 0 -2.8102286055450431e-05 6.7334546913375661e-05 0 -3.1183835687472242e-05 4.7869335886364653e-05 0 -1.4422150776504915e-05 3.9114199017914418e-05 0 -1.907399805632629e-05 5.57486151213539e-05 0 -1.907399805632629e-05 5.57486151213539e-05 0 -1.7217371452025136e-05 6.88468655443308e-05 0 -7.5366389157257037e-06 5.821748451441557e-05 0 -1.907399805632629e-05 5.57486151213539e-05 0 -1.7217371452025136e-05 6.88468655443308e-05 0 -2.8102286055450431e-05 6.7334546913375661e-05 0 -1.7217371452025136e-05 6.88468655443308e-05 0 -2.8102286055450431e-05 6.7334546913375661e-05 0 -2.2882841093474551e-05 8.3560869967548893e-05 0 -3.9536191987539333e-05 8.520410138031188e-05 0 -2.8102286055450431e-05 6.7334546913375661e-05 0 -2.2882841093474551e-05 8.3560869967548893e-05 0 -1.7217371452025136e-05 6.88468655443308e-05 0 -2.2882841093474551e-05 8.3560869967548893e-05 0 -8.2711053806926797e-06 8.0764222377775754e-05 0 -8.2711053806926797e-06 8.0764222377775754e-05 0 6.1075738851265601e-06 7.5719485286501615e-05 0 2.8437889094461747e-06 9.6047647003006967e-05 0 -8.2711053806926797e-06 8.0764222377775754e-05 0 -7.5366389157257037e-06 5.821748451441557e-05 0 6.1075738851265601e-06 7.5719485286501615e-05 0 -7.5366389157257037e-06 5.821748451441557e-05 0 7.4558635752509222e-06 5.160868000776752e-05 0 6.1075738851265601e-06 7.5719485286501615e-05 0 -1.7217371452025136e-05 6.88468655443308e-05 0 -8.2711053806926797e-06 8.0764222377775754e-05 0 -7.5366389157257037e-06 5.821748451441557e-05 0 -1.4422150776504915e-05 3.9114199017914418e-05 0 -1.907399805632629e-05 5.57486151213539e-05 0 -7.5366389157257037e-06 5.821748451441557e-05 0 -1.4422150776504915e-05 3.9114199017914418e-05 0 -7.5366389157257037e-06 5.821748451441557e-05 0 -1.9960645152395383e-06 3.7624395942715712e-05 0 -7.5366389157257037e-06 5.821748451441557e-05 0 -1.9960645152395383e-06 3.7624395942715712e-05 0 7.4558635752509222e-06 5.160868000776752e-05 0 -1.9960645152395383e-06 3.7624395942715712e-05 0 7.4558635752509222e-06 5.160868000776752e-05 0 6.987133141044212e-06 3.4949754648610441e-05 0 7.4558635752509222e-06 5.160868000776752e-05 0 6.987133141044212e-06 3.4949754648610441e-05 0 1.5195092633305827e-05 3.1228195170657494e-05 0 2.218733901478986e-05 5.2686513297334945e-05 0 7.4558635752509222e-06 5.160868000776752e-05 0 1.5195092633305827e-05 3.1228195170657494e-05 0 2.218733901478986e-05 5.2686513297334945e-05 0 7.4558635752509222e-06 5.160868000776752e-05 0 2.141181703670558e-05 7.2508937340841193e-05 0 7.4558635752509222e-06 5.160868000776752e-05 0 6.1075738851265601e-06 7.5719485286501615e-05 0 2.141181703670558e-05 7.2508937340841193e-05 0 6.1075738851265601e-06 7.5719485286501615e-05 0 2.141181703670558e-05 7.2508937340841193e-05 0 2.1064266958341528e-05 9.4995742866495078e-05 0 3.4531521506897364e-05 8.8447556985207226e-05 0 2.141181703670558e-05 7.2508937340841193e-05 0 2.1064266958341528e-05 9.4995742866495078e-05 0 6.1075738851265601e-06 7.5719485286501615e-05 0 2.1064266958341528e-05 9.4995742866495078e-05 0 2.8437889094461747e-06 9.6047647003006967e-05 0 2.1064266958341528e-05 9.4995742866495078e-05 0 1.4215624779069353e-05 0.00010892251058166496 0 2.8437889094461747e-06 9.6047647003006967e-05 0 2.1064266958341528e-05 9.4995742866495078e-05 0 1.4215624779069353e-05 0.00010892251058166496 0 3.1569459724631087e-05 0.00011359017841099313 0 3.7887237108234263e-05 0.0001018821692000721 0 2.1064266958341528e-05 9.4995742866495078e-05 0 3.1569459724631087e-05 0.00011359017841099313 0 3.8834341949452289e-05 0.00012720274341772474 0 3.1569459724631087e-05 0.00011359017841099313 0 1.7963069761104785e-05 0.00012794566832424037 0 3.8834341949452289e-05 0.00012720274341772474 0 1.7963069761104785e-05 0.00012794566832424037 0 3.5638905660868796e-05 0.00014131050428719635 0 1.4215624779069353e-05 0.00010892251058166496 0 3.1569459724631087e-05 0.00011359017841099313 0 1.7963069761104785e-05 0.00012794566832424037 0 1.4215624779069353e-05 0.00010892251058166496 0 1.7963069761104785e-05 0.00012794566832424037 0 -1.9461648297143036e-06 0.00011179280544463754 0 1.7963069761104785e-05 0.00012794566832424037 0 -4.0375926234236326e-06 0.00012978979912987653 0 -1.9461648297143036e-06 0.00011179280544463754 0 1.7963069761104785e-05 0.00012794566832424037 0 -4.0375926234236326e-06 0.00012978979912987653 0 1.5502355370883769e-06 0.00014695866853070523 0 -4.0375926234236326e-06 0.00012978979912987653 0 -1.9461648297143036e-06 0.00011179280544463754 0 -1.9045487171361366e-05 0.00012833537293770457 0 -1.9461648297143036e-06 0.00011179280544463754 0 -1.4991848611667571e-05 0.0001022544755588931 0 -1.9045487171361366e-05 0.00012833537293770457 0 -1.9461648297143036e-06 0.00011179280544463754 0 2.8437889094461747e-06 9.6047647003006967e-05 0 -1.4991848611667571e-05 0.0001022544755588931 0 1.4215624779069353e-05 0.00010892251058166496 0 -1.9461648297143036e-06 0.00011179280544463754 0 2.8437889094461747e-06 9.6047647003006967e-05 0 -8.2711053806926797e-06 8.0764222377775754e-05 0 2.8437889094461747e-06 9.6047647003006967e-05 0 -1.4991848611667571e-05 0.0001022544755588931 0 -2.2882841093474551e-05 8.3560869967548893e-05 0 -8.2711053806926797e-06 8.0764222377775754e-05 0 -1.4991848611667571e-05 0.0001022544755588931 0 -2.2882841093474551e-05 8.3560869967548893e-05 0 -2.9814900243814363e-05 9.8864388722425607e-05 0 -1.4991848611667571e-05 0.0001022544755588931 0 -3.9536191987539333e-05 8.520410138031188e-05 0 -2.2882841093474551e-05 8.3560869967548893e-05 0 -2.9814900243814363e-05 9.8864388722425607e-05 0 -2.9814900243814363e-05 9.8864388722425607e-05 0 -2.9534799869726974e-05 0.00011349203625568669 0 -4.3780483496960565e-05 0.00010985647690923372 0 -2.9814900243814363e-05 9.8864388722425607e-05 0 -1.4991848611667571e-05 0.0001022544755588931 0 -2.9534799869726974e-05 0.00011349203625568669 0 -1.4991848611667571e-05 0.0001022544755588931 0 -1.9045487171361366e-05 0.00012833537293770457 0 -2.9534799869726974e-05 0.00011349203625568669 0 -4.0375926234236326e-06 0.00012978979912987653 0 -1.9045487171361366e-05 0.00012833537293770457 0 -1.6305390755651446e-05 0.00014713475961889666 0 -1.9045487171361366e-05 0.00012833537293770457 0 -4.0719862915279421e-05 0.00012876000949776616 0 -3.0418811398955789e-05 0.00014233739609033951 0 -1.9045487171361366e-05 0.00012833537293770457 0 -2.9534799869726974e-05 0.00011349203625568669 0 -4.0719862915279421e-05 0.00012876000949776616 0 -2.9534799869726974e-05 0.00011349203625568669 0 -4.0719862915279421e-05 0.00012876000949776616 0 -4.3780483496960565e-05 0.00010985647690923372 0 -4.0719862915279421e-05 0.00012876000949776616 0 -6.0601509557359989e-05 0.00011891205015033381 0 -6.1607472595333169e-05 0.00013999566592308254 0 -4.0719862915279421e-05 0.00012876000949776616 0 -6.1607472595333169e-05 0.00013999566592308254 0 -4.48658524238712e-05 0.00014842462161807326 0 -4.0719862915279421e-05 0.00012876000949776616 0 -6.0601509557359989e-05 0.00011891205015033381 0 -4.3780483496960565e-05 0.00010985647690923372 0 -6.0601509557359989e-05 0.00011891205015033381 0 -4.3780483496960565e-05 0.00010985647690923372 0 -5.869768163214676e-05 9.8156759314126332e-05 0 -3.9536191987539333e-05 8.520410138031188e-05 0 -2.9814900243814363e-05 9.8864388722425607e-05 0 -4.3780483496960565e-05 0.00010985647690923372 0 -3.9536191987539333e-05 8.520410138031188e-05 0 -4.3780483496960565e-05 0.00010985647690923372 0 -5.869768163214676e-05 9.8156759314126332e-05 0 -6.2477915969793264e-05 0.00018298957314516218 0 -3.4806307539928404e-05 0.00018328641913871867 0 -4.2397812396062695e-05 0.00020417162091975182 0 -6.2477915969793264e-05 0.00018298957314516218 0 -4.6648482870751404e-05 0.00016744404747322895 0 -3.4806307539928404e-05 0.00018328641913871867 0 -4.6648482870751404e-05 0.00016744404747322895 0 -3.1421791360075468e-05 0.00015937788621147217 0 -3.4806307539928404e-05 0.00018328641913871867 0 -6.2477915969793264e-05 0.00018298957314516218 0 -4.6648482870751404e-05 0.00016744404747322895 0 -6.2201460076951562e-05 0.00016135130809594828 0 -4.6648482870751404e-05 0.00016744404747322895 0 -6.2201460076951562e-05 0.00016135130809594828 0 -4.48658524238712e-05 0.00014842462161807326 0 -6.2201460076951562e-05 0.00016135130809594828 0 -6.1607472595333169e-05 0.00013999566592308254 0 -4.48658524238712e-05 0.00014842462161807326 0 -4.0719862915279421e-05 0.00012876000949776616 0 -4.48658524238712e-05 0.00014842462161807326 0 -3.0418811398955789e-05 0.00014233739609033951 0 -4.6648482870751404e-05 0.00016744404747322895 0 -4.48658524238712e-05 0.00014842462161807326 0 -3.1421791360075468e-05 0.00015937788621147217 0 -3.1421791360075468e-05 0.00015937788621147217 0 -3.0418811398955789e-05 0.00014233739609033951 0 -1.6305390755651446e-05 0.00014713475961889666 0 -4.48658524238712e-05 0.00014842462161807326 0 -3.1421791360075468e-05 0.00015937788621147217 0 -3.0418811398955789e-05 0.00014233739609033951 0 -1.9045487171361366e-05 0.00012833537293770457 0 -3.0418811398955789e-05 0.00014233739609033951 0 -1.6305390755651446e-05 0.00014713475961889666 0 -3.1421791360075468e-05 0.00015937788621147217 0 -1.6305390755651446e-05 0.00014713475961889666 0 -1.5358772833504021e-05 0.00016551607874623489 0 -1.5358772833504021e-05 0.00016551607874623489 0 -3.4806307539928404e-05 0.00018328641913871867 0 -1.3302468546307285e-05 0.00018477917826558503 0 -3.1421791360075468e-05 0.00015937788621147217 0 -1.5358772833504021e-05 0.00016551607874623489 0 -3.4806307539928404e-05 0.00018328641913871867 0 -3.4806307539928404e-05 0.00018328641913871867 0 -1.3302468546307285e-05 0.00018477917826558503 0 -2.0753444424795589e-05 0.00020602986705723177 0 -1.3302468546307285e-05 0.00018477917826558503 0 7.2076866840321765e-07 0.00017190590963542352 0 3.4436955631202866e-06 0.00019512814787349178 0 7.2076866840321765e-07 0.00017190590963542352 0 1.8619027055732704e-05 0.00017990292629803186 0 3.4436955631202866e-06 0.00019512814787349178 0 7.2076866840321765e-07 0.00017190590963542352 0 1.3551360057229204e-05 0.00016008743382398417 0 1.8619027055732704e-05 0.00017990292629803186 0 -1.5358772833504021e-05 0.00016551607874623489 0 -1.3302468546307285e-05 0.00018477917826558503 0 7.2076866840321765e-07 0.00017190590963542352 0 -1.6305390755651446e-05 0.00014713475961889666 0 -1.5358772833504021e-05 0.00016551607874623489 0 1.5502355370883769e-06 0.00014695866853070523 0 -1.5358772833504021e-05 0.00016551607874623489 0 7.2076866840321765e-07 0.00017190590963542352 0 1.5502355370883769e-06 0.00014695866853070523 0 -4.0375926234236326e-06 0.00012978979912987653 0 -1.6305390755651446e-05 0.00014713475961889666 0 1.5502355370883769e-06 0.00014695866853070523 0 1.5502355370883769e-06 0.00014695866853070523 0 1.3551360057229204e-05 0.00016008743382398417 0 1.9728786295331459e-05 0.00014739549798962762 0 7.2076866840321765e-07 0.00017190590963542352 0 1.5502355370883769e-06 0.00014695866853070523 0 1.3551360057229204e-05 0.00016008743382398417 0 1.3551360057229204e-05 0.00016008743382398417 0 1.9728786295331459e-05 0.00014739549798962762 0 3.0010077722013374e-05 0.00015990459121858035 0 1.7963069761104785e-05 0.00012794566832424037 0 1.9728786295331459e-05 0.00014739549798962762 0 3.5638905660868796e-05 0.00014131050428719635 0 1.7963069761104785e-05 0.00012794566832424037 0 1.5502355370883769e-06 0.00014695866853070523 0 1.9728786295331459e-05 0.00014739549798962762 0 1.9728786295331459e-05 0.00014739549798962762 0 3.5638905660868796e-05 0.00014131050428719635 0 3.0010077722013374e-05 0.00015990459121858035 0 3.5638905660868796e-05 0.00014131050428719635 0 3.0010077722013374e-05 0.00015990459121858035 0 4.5646595425736897e-05 0.00015182219301598389 0 3.0010077722013374e-05 0.00015990459121858035 0 1.8619027055732704e-05 0.00017990292629803186 0 3.8705102019435722e-05 0.00018168037285523953 0 3.0010077722013374e-05 0.00015990459121858035 0 3.8705102019435722e-05 0.00018168037285523953 0 4.6418390779059158e-05 0.00016544836099270869 0 1.3551360057229204e-05 0.00016008743382398417 0 3.0010077722013374e-05 0.00015990459121858035 0 1.8619027055732704e-05 0.00017990292629803186 0 1.8619027055732704e-05 0.00017990292629803186 0 3.8705102019435722e-05 0.00018168037285523953 0 2.6217832132630857e-05 0.00020346646432809929 0 3.8705102019435722e-05 0.00018168037285523953 0 2.6217832132630857e-05 0.00020346646432809929 0 4.7503198803020842e-05 0.0001999352737501046 0 2.6217832132630857e-05 0.00020346646432809929 0 4.5698338575511752e-05 0.00021948278183413875 0 2.471049731640117e-05 0.00022606241545506379 0 2.6217832132630857e-05 0.00020346646432809929 0 4.5698338575511752e-05 0.00021948278183413875 0 4.7503198803020842e-05 0.0001999352737501046 0 4.5698338575511752e-05 0.00021948278183413875 0 3.8930093055877682e-05 0.00023397926394173036 0 2.471049731640117e-05 0.00022606241545506379 0 4.5698338575511752e-05 0.00021948278183413875 0 3.8930093055877682e-05 0.00023397926394173036 0 5.7559008519605976e-05 0.00023012914396338877 0 3.8930093055877682e-05 0.00023397926394173036 0 5.7559008519605976e-05 0.00023012914396338877 0 5.2072618724184096e-05 0.00024423347050286649 0 3.8930093055877682e-05 0.00023397926394173036 0 2.8528033581644947e-05 0.00024693696784770325 0 5.2072618724184096e-05 0.00024423347050286649 0 3.8930093055877682e-05 0.00023397926394173036 0 2.8528033581644947e-05 0.00024693696784770325 0 2.471049731640117e-05 0.00022606241545506379 0 5.2814250588857864e-06 0.00024825815153083362 0 3.623794597785209e-06 0.00021969681254924476 0 -1.6372448501646265e-05 0.00022806865873893921 0 2.471049731640117e-05 0.00022606241545506379 0 5.2814250588857864e-06 0.00024825815153083362 0 3.623794597785209e-06 0.00021969681254924476 0 2.8528033581644947e-05 0.00024693696784770325 0 2.471049731640117e-05 0.00022606241545506379 0 5.2814250588857864e-06 0.00024825815153083362 0 3.623794597785209e-06 0.00021969681254924476 0 3.4436955631202866e-06 0.00019512814787349178 0 -2.0753444424795589e-05 0.00020602986705723177 0 2.6217832132630857e-05 0.00020346646432809929 0 2.471049731640117e-05 0.00022606241545506379 0 3.623794597785209e-06 0.00021969681254924476 0 2.6217832132630857e-05 0.00020346646432809929 0 3.623794597785209e-06 0.00021969681254924476 0 3.4436955631202866e-06 0.00019512814787349178 0 1.8619027055732704e-05 0.00017990292629803186 0 2.6217832132630857e-05 0.00020346646432809929 0 3.4436955631202866e-06 0.00019512814787349178 0 -1.3302468546307285e-05 0.00018477917826558503 0 3.4436955631202866e-06 0.00019512814787349178 0 -2.0753444424795589e-05 0.00020602986705723177 0 -3.4806307539928404e-05 0.00018328641913871867 0 -2.0753444424795589e-05 0.00020602986705723177 0 -4.2397812396062695e-05 0.00020417162091975182 0 -2.0753444424795589e-05 0.00020602986705723177 0 -1.6372448501646265e-05 0.00022806865873893921 0 -3.7745430232792364e-05 0.00022406203458519029 0 -2.0753444424795589e-05 0.00020602986705723177 0 -3.7745430232792364e-05 0.00022406203458519029 0 -4.2397812396062695e-05 0.00020417162091975182 0 3.623794597785209e-06 0.00021969681254924476 0 -2.0753444424795589e-05 0.00020602986705723177 0 -1.6372448501646265e-05 0.00022806865873893921 0 5.2814250588857864e-06 0.00024825815153083362 0 -1.6372448501646265e-05 0.00022806865873893921 0 -1.748379248571196e-05 0.0002488958995616931 0 -1.748379248571196e-05 0.0002488958995616931 0 -2.9048309266961294e-05 0.00023749487273832357 0 -3.9977508923207735e-05 0.00024913637997840633 0 -1.6372448501646265e-05 0.00022806865873893921 0 -1.748379248571196e-05 0.0002488958995616931 0 -2.9048309266961294e-05 0.00023749487273832357 0 -1.6372448501646265e-05 0.00022806865873893921 0 -2.9048309266961294e-05 0.00023749487273832357 0 -3.7745430232792364e-05 0.00022406203458519029 0 -2.9048309266961294e-05 0.00023749487273832357 0 -3.7745430232792364e-05 0.00022406203458519029 0 -4.7569847386591626e-05 0.00023654806406950323 0 -2.9048309266961294e-05 0.00023749487273832357 0 -4.7569847386591626e-05 0.00023654806406950323 0 -3.9977508923207735e-05 0.00024913637997840633 0 -4.7569847386591626e-05 0.00023654806406950323 0 -3.9977508923207735e-05 0.00024913637997840633 0 -6.2227521717095997e-05 0.00024935863043329452 0 -4.7569847386591626e-05 0.00023654806406950323 0 -6.2227521717095997e-05 0.00024935863043329452 0 -6.2431810658353053e-05 0.00022707804020465416 0 -3.7745430232792364e-05 0.00022406203458519029 0 -4.7569847386591626e-05 0.00023654806406950323 0 -6.2431810658353053e-05 0.00022707804020465416 0 -6.2431810658353053e-05 0.00022707804020465416 0 -4.2397812396062695e-05 0.00020417162091975182 0 -6.2528996299290892e-05 0.00020497455514415473 0 -3.7745430232792364e-05 0.00022406203458519029 0 -6.2431810658353053e-05 0.00022707804020465416 0 -4.2397812396062695e-05 0.00020417162091975182 0 -6.2477915969793264e-05 0.00018298957314516218 0 -4.2397812396062695e-05 0.00020417162091975182 0 -6.2528996299290892e-05 0.00020497455514415473 0 3.0377844909972468e-05 -2.7787281715394407e-05 0 3.0953844208063596e-05 -3.0143949612478298e-05 0 2.7695701469838269e-05 -2.8680596433421521e-05 0 3.0377844909972468e-05 -2.7787281715394407e-05 0 3.4284490008334539e-05 -2.9299330705327725e-05 0 3.4011328787181478e-05 -2.7471309519471436e-05 0 3.0377844909972468e-05 -2.7787281715394407e-05 0 3.1913716084281326e-05 -2.6421216766500925e-05 0 3.4011328787181478e-05 -2.7471309519471436e-05 0 3.0377844909972468e-05 -2.7787281715394407e-05 0 3.4284490008334539e-05 -2.9299330705327725e-05 0 3.0953844208063596e-05 -3.0143949612478298e-05 0 3.0953844208063596e-05 -3.0143949612478298e-05 0 2.7087326228073987e-05 -3.0603656337330132e-05 0 2.7695701469838269e-05 -2.8680596433421521e-05 0 2.7087326228073987e-05 -3.0603656337330132e-05 0 2.4492985225265752e-05 -2.8170146984417821e-05 0 2.7695701469838269e-05 -2.8680596433421521e-05 0 2.7087326228073987e-05 -3.0603656337330132e-05 0 2.4492985225265752e-05 -2.8170146984417821e-05 0 2.4149926832225028e-05 -2.9722581648974706e-05 0 2.4492985225265752e-05 -2.8170146984417821e-05 0 2.7695701469838269e-05 -2.8680596433421521e-05 0 2.4910627809967774e-05 -2.6195723452405112e-05 0 2.4492985225265752e-05 -2.8170146984417821e-05 0 2.4910627809967774e-05 -2.6195723452405112e-05 0 2.2221807338780101e-05 -2.6383948241269371e-05 0 2.4910627809967774e-05 -2.6195723452405112e-05 0 2.2221807338780101e-05 -2.6383948241269371e-05 0 2.0113464817979925e-05 -2.4093448315985821e-05 0 2.4943346802580666e-05 -2.3594835089633052e-05 0 2.4910627809967774e-05 -2.6195723452405112e-05 0 2.8358595376540344e-05 -2.610256148825139e-05 0 3.0377844909972468e-05 -2.7787281715394407e-05 0 2.4910627809967774e-05 -2.6195723452405112e-05 0 2.8358595376540344e-05 -2.610256148825139e-05 0 3.0377844909972468e-05 -2.7787281715394407e-05 0 2.7695701469838269e-05 -2.8680596433421521e-05 0 2.4910627809967774e-05 -2.6195723452405112e-05 0 3.0377844909972468e-05 -2.7787281715394407e-05 0 2.8358595376540344e-05 -2.610256148825139e-05 0 3.1913716084281326e-05 -2.6421216766500925e-05 0 2.9598137647290674e-05 -2.4769031285333444e-05 0 2.8358595376540344e-05 -2.610256148825139e-05 0 3.1913716084281326e-05 -2.6421216766500925e-05 0 2.9598137647290674e-05 -2.4769031285333444e-05 0 3.304429953412689e-05 -2.4382742809338735e-05 0 3.1913716084281326e-05 -2.6421216766500925e-05 0 3.3552961303166674e-05 -2.1849401571869918e-05 0 3.1144589574695283e-05 -2.2668838210497255e-05 0 3.304429953412689e-05 -2.4382742809338735e-05 0 3.304429953412689e-05 -2.4382742809338735e-05 0 3.5723384676135289e-05 -2.2953330490168098e-05 0 3.5598006597673471e-05 -2.5502949646491605e-05 0 3.304429953412689e-05 -2.4382742809338735e-05 0 3.1913716084281326e-05 -2.6421216766500925e-05 0 3.5598006597673471e-05 -2.5502949646491605e-05 0 5.6281964818696106e-05 0.00013573024677911906 0 3.5638905660868796e-05 0.00014131050428719635 0 4.5646595425736897e-05 0.00015182219301598389 0 5.6281964818696106e-05 0.00013573024677911906 0 5.9451296737836265e-05 0.00015572716936876059 0 4.5646595425736897e-05 0.00015182219301598389 0 3.3552961303166674e-05 -2.1849401571869918e-05 0 3.304429953412689e-05 -2.4382742809338735e-05 0 3.5723384676135289e-05 -2.2953330490168098e-05 0 4.5038184789716391e-05 5.6925511780574524e-05 0 4.7759531148515078e-05 6.647788281294725e-05 0 3.0010077722013374e-05 0.00015990459121858035 0 4.5646595425736897e-05 0.00015182219301598389 0 4.6418390779059158e-05 0.00016544836099270869 0 5.9451296737836265e-05 0.00015572716936876059 0 4.5646595425736897e-05 0.00015182219301598389 0 4.6418390779059158e-05 0.00016544836099270869 0 3.8705102019435722e-05 0.00018168037285523953 0 4.6418390779059158e-05 0.00016544836099270869 0 6.2813898842766313e-05 0.00017610273088618247 0 4.7759531148515078e-05 6.647788281294725e-05 0 5.0402962705757949e-05 7.5866756198546769e-05 0 3.5723384676135289e-05 -2.2953330490168098e-05 0 3.8553195970045511e-05 -2.3997969373013074e-05 0 3.5598006597673471e-05 -2.5502949646491605e-05 0 5.9451296737836265e-05 0.00015572716936876059 0 4.6418390779059158e-05 0.00016544836099270869 0 6.2813898842766313e-05 0.00017610273088618247 0 5.0402962705757949e-05 7.5866756198546769e-05 0 5.5550002545296427e-05 8.5898465603977543e-05 0 3.8705102019435722e-05 0.00018168037285523953 0 6.2813898842766313e-05 0.00017610273088618247 0 4.7503198803020842e-05 0.0001999352737501046 0 3.1913716084281326e-05 -2.6421216766500925e-05 0 3.4011328787181478e-05 -2.7471309519471436e-05 0 3.5598006597673471e-05 -2.5502949646491605e-05 0 3.8553195970045511e-05 -2.3997969373013074e-05 0 3.5598006597673471e-05 -2.5502949646491605e-05 0 3.7954558095481046e-05 -2.764145978772985e-05 0 3.4284490008334539e-05 -2.9299330705327725e-05 0 3.4011328787181478e-05 -2.7471309519471436e-05 0 3.7954558095481046e-05 -2.764145978772985e-05 0 3.4011328787181478e-05 -2.7471309519471436e-05 0 3.5598006597673471e-05 -2.5502949646491605e-05 0 3.7954558095481046e-05 -2.764145978772985e-05 0 3.7954558095481046e-05 -2.764145978772985e-05 0 4.1551220107318184e-05 -2.8790012905049219e-05 0 3.8174355337239258e-05 -3.0683150783627572e-05 0 3.4284490008334539e-05 -2.9299330705327725e-05 0 3.7954558095481046e-05 -2.764145978772985e-05 0 3.8174355337239258e-05 -3.0683150783627572e-05 0 3.8553195970045511e-05 -2.3997969373013074e-05 0 3.7954558095481046e-05 -2.764145978772985e-05 0 4.2136872168160865e-05 -2.5447763944234422e-05 0 3.7954558095481046e-05 -2.764145978772985e-05 0 4.1551220107318184e-05 -2.8790012905049219e-05 0 4.2136872168160865e-05 -2.5447763944234422e-05 0 4.1551220107318184e-05 -2.8790012905049219e-05 0 3.8174355337239258e-05 -3.0683150783627572e-05 0 4.3343601993205632e-05 -3.1829170898891138e-05 0 6.2813898842766313e-05 0.00017610273088618247 0 4.7503198803020842e-05 0.0001999352737501046 0 6.6264504076128997e-05 0.00019664379768607695 0 5.5550002545296427e-05 8.5898465603977543e-05 0 5.3550985723119368e-05 9.4636990068997022e-05 0 4.1551220107318184e-05 -2.8790012905049219e-05 0 4.2136872168160865e-05 -2.5447763944234422e-05 0 4.6566189401271889e-05 -2.7903520993508396e-05 0 4.7503198803020842e-05 0.0001999352737501046 0 6.6264504076128997e-05 0.00019664379768607695 0 7.0256434305955578e-05 0.00021787448287735264 0 4.5698338575511752e-05 0.00021948278183413875 0 4.7503198803020842e-05 0.0001999352737501046 0 7.0256434305955578e-05 0.00021787448287735264 0 4.5698338575511752e-05 0.00021948278183413875 0 7.0256434305955578e-05 0.00021787448287735264 0 5.7559008519605976e-05 0.00023012914396338877 0 5.3550985723119368e-05 9.4636990068997022e-05 0 8.1752979903328956e-05 0.00010396477895978384 0 7.0256434305955578e-05 0.00021787448287735264 0 7.4905010553091714e-05 0.00023986530936556216 0 5.7559008519605976e-05 0.00023012914396338877 0 7.4905010553091714e-05 0.00023986530936556216 0 5.7559008519605976e-05 0.00023012914396338877 0 5.2072618724184096e-05 0.00024423347050286649 0 3.8174355337239258e-05 -3.0683150783627572e-05 0 4.3343601993205632e-05 -3.1829170898891138e-05 0 3.7538022169512488e-05 -3.4435929179354022e-05 0 4.1551220107318184e-05 -2.8790012905049219e-05 0 4.6566189401271889e-05 -2.7903520993508396e-05 0 4.3343601993205632e-05 -3.1829170898891138e-05 0 4.6566189401271889e-05 -2.7903520993508396e-05 0 5.1293923321483166e-05 -3.2283685607631292e-05 0 4.3343601993205632e-05 -3.1829170898891138e-05 0 5.1293923321483166e-05 -3.2283685607631292e-05 0 4.3343601993205632e-05 -3.1829170898891138e-05 0 4.5556000027815223e-05 -3.6246196233540544e-05 0 4.3343601993205632e-05 -3.1829170898891138e-05 0 4.5556000027815223e-05 -3.6246196233540544e-05 0 3.7538022169512488e-05 -3.4435929179354022e-05 0 3.7538022169512488e-05 -3.4435929179354022e-05 0 3.2761065806468165e-05 -3.3644259948987146e-05 0 3.4458308196579153e-05 -3.8270813481951042e-05 0 4.5556000027815223e-05 -3.6246196233540544e-05 0 3.9797358942154915e-05 -3.8124777982234864e-05 0 3.7538022169512488e-05 -3.4435929179354022e-05 0 3.9797358942154915e-05 -3.8124777982234864e-05 0 3.7538022169512488e-05 -3.4435929179354022e-05 0 3.4458308196579153e-05 -3.8270813481951042e-05 0 3.8174355337239258e-05 -3.0683150783627572e-05 0 3.7538022169512488e-05 -3.4435929179354022e-05 0 3.4042938304126627e-05 -3.1745987371562287e-05 0 3.7538022169512488e-05 -3.4435929179354022e-05 0 3.4042938304126627e-05 -3.1745987371562287e-05 0 3.2761065806468165e-05 -3.3644259948987146e-05 0 3.0953844208063596e-05 -3.0143949612478298e-05 0 3.4042938304126627e-05 -3.1745987371562287e-05 0 2.9773800643189335e-05 -3.2345127701188358e-05 0 3.4284490008334539e-05 -2.9299330705327725e-05 0 3.0953844208063596e-05 -3.0143949612478298e-05 0 3.4042938304126627e-05 -3.1745987371562287e-05 0 3.4284490008334539e-05 -2.9299330705327725e-05 0 3.8174355337239258e-05 -3.0683150783627572e-05 0 3.4042938304126627e-05 -3.1745987371562287e-05 0 2.7087326228073987e-05 -3.0603656337330132e-05 0 2.9773800643189335e-05 -3.2345127701188358e-05 0 2.7265750146463146e-05 -3.2906866021463444e-05 0 3.0953844208063596e-05 -3.0143949612478298e-05 0 2.7087326228073987e-05 -3.0603656337330132e-05 0 2.9773800643189335e-05 -3.2345127701188358e-05 0 2.9773800643189335e-05 -3.2345127701188358e-05 0 3.2761065806468165e-05 -3.3644259948987146e-05 0 3.0087801847544734e-05 -3.4969283590649109e-05 0 3.4042938304126627e-05 -3.1745987371562287e-05 0 2.9773800643189335e-05 -3.2345127701188358e-05 0 3.2761065806468165e-05 -3.3644259948987146e-05 0 2.9773800643189335e-05 -3.2345127701188358e-05 0 3.0087801847544734e-05 -3.4969283590649109e-05 0 2.7265750146463146e-05 -3.2906866021463444e-05 0 3.2761065806468165e-05 -3.3644259948987146e-05 0 3.0087801847544734e-05 -3.4969283590649109e-05 0 3.4458308196579153e-05 -3.8270813481951042e-05 0 3.0087801847544734e-05 -3.4969283590649109e-05 0 3.4458308196579153e-05 -3.8270813481951042e-05 0 3.0526252540563886e-05 -3.7416414272489023e-05 0 3.0087801847544734e-05 -3.4969283590649109e-05 0 3.0526252540563886e-05 -3.7416414272489023e-05 0 2.7956032945233189e-05 -3.5049318660697563e-05 0 3.0526252540563886e-05 -3.7416414272489023e-05 0 2.7997849337392432e-05 -3.6123386870252711e-05 0 2.7956032945233189e-05 -3.5049318660697563e-05 0 2.7997849337392432e-05 -3.6123386870252711e-05 0 2.5163467307155784e-05 -3.3882595514359083e-05 0 2.7956032945233189e-05 -3.5049318660697563e-05 0 2.5163467307155784e-05 -3.3882595514359083e-05 0 2.7956032945233189e-05 -3.5049318660697563e-05 0 2.7265750146463146e-05 -3.2906866021463444e-05 0 3.0087801847544734e-05 -3.4969283590649109e-05 0 2.7956032945233189e-05 -3.5049318660697563e-05 0 2.7265750146463146e-05 -3.2906866021463444e-05 0 2.7316746884993391e-05 -3.5262206293646589e-05 0 2.4775816128114338e-05 -3.4649219432576811e-05 0 2.7613355042252168e-05 -3.564720838481041e-05 0 2.7997849337392432e-05 -3.6123386870252711e-05 0 2.7316746884993391e-05 -3.5262206293646589e-05 0 2.4775816128114338e-05 -3.4649219432576811e-05 0 2.7997849337392432e-05 -3.6123386870252711e-05 0 2.5163467307155784e-05 -3.3882595514359083e-05 0 2.4775816128114338e-05 -3.4649219432576811e-05 0 2.4775816128114338e-05 -3.4649219432576811e-05 0 2.261760819264069e-05 -3.2828468542135237e-05 0 2.1889964207911528e-05 -3.4024033791954137e-05 0 2.5163467307155784e-05 -3.3882595514359083e-05 0 2.4775816128114338e-05 -3.4649219432576811e-05 0 2.261760819264069e-05 -3.2828468542135237e-05 0 2.261760819264069e-05 -3.2828468542135237e-05 0 2.4034768566219517e-05 -3.1618586264422379e-05 0 2.1335079794138732e-05 -3.0880065860916495e-05 0 2.261760819264069e-05 -3.2828468542135237e-05 0 2.1335079794138732e-05 -3.0880065860916495e-05 0 1.9811942239557103e-05 -3.1658512184511262e-05 0 2.261760819264069e-05 -3.2828468542135237e-05 0 1.9811942239557103e-05 -3.1658512184511262e-05 0 2.1889964207911528e-05 -3.4024033791954137e-05 0 2.5163467307155784e-05 -3.3882595514359083e-05 0 2.7265750146463146e-05 -3.2906866021463444e-05 0 2.4034768566219517e-05 -3.1618586264422379e-05 0 2.5163467307155784e-05 -3.3882595514359083e-05 0 2.261760819264069e-05 -3.2828468542135237e-05 0 2.4034768566219517e-05 -3.1618586264422379e-05 0 2.7087326228073987e-05 -3.0603656337330132e-05 0 2.7265750146463146e-05 -3.2906866021463444e-05 0 2.4034768566219517e-05 -3.1618586264422379e-05 0 2.7087326228073987e-05 -3.0603656337330132e-05 0 2.4034768566219517e-05 -3.1618586264422379e-05 0 2.4149926832225028e-05 -2.9722581648974706e-05 0 2.4492985225265752e-05 -2.8170146984417821e-05 0 2.4149926832225028e-05 -2.9722581648974706e-05 0 2.2125579582596596e-05 -2.8148343040171151e-05 0 2.4149926832225028e-05 -2.9722581648974706e-05 0 2.2125579582596596e-05 -2.8148343040171151e-05 0 2.229073188422025e-05 -2.9946860311059985e-05 0 2.2125579582596596e-05 -2.8148343040171151e-05 0 2.229073188422025e-05 -2.9946860311059985e-05 0 2.0171584990570515e-05 -2.8546656665932091e-05 0 2.4034768566219517e-05 -3.1618586264422379e-05 0 2.4149926832225028e-05 -2.9722581648974706e-05 0 2.229073188422025e-05 -2.9946860311059985e-05 0 2.229073188422025e-05 -2.9946860311059985e-05 0 2.1335079794138732e-05 -3.0880065860916495e-05 0 2.0171584990570515e-05 -2.8546656665932091e-05 0 2.4034768566219517e-05 -3.1618586264422379e-05 0 2.229073188422025e-05 -2.9946860311059985e-05 0 2.1335079794138732e-05 -3.0880065860916495e-05 0 2.1335079794138732e-05 -3.0880065860916495e-05 0 1.9811942239557103e-05 -3.1658512184511262e-05 0 1.8003587923257035e-05 -2.8517625515784353e-05 0 1.9811942239557103e-05 -3.1658512184511262e-05 0 1.8003587923257035e-05 -2.8517625515784353e-05 0 1.7525250455978537e-05 -3.0391702691406138e-05 0 2.1335079794138732e-05 -3.0880065860916495e-05 0 1.8003587923257035e-05 -2.8517625515784353e-05 0 2.0171584990570515e-05 -2.8546656665932091e-05 0 2.0171584990570515e-05 -2.8546656665932091e-05 0 1.6793845370452358e-05 -2.6085124089759649e-05 0 1.973805400724072e-05 -2.6305934389175178e-05 0 1.8003587923257035e-05 -2.8517625515784353e-05 0 2.0171584990570515e-05 -2.8546656665932091e-05 0 1.6793845370452358e-05 -2.6085124089759649e-05 0 1.8003587923257035e-05 -2.8517625515784353e-05 0 1.6793845370452358e-05 -2.6085124089759649e-05 0 1.4340872403006543e-05 -2.7458909499807054e-05 0 1.6793845370452358e-05 -2.6085124089759649e-05 0 1.973805400724072e-05 -2.6305934389175178e-05 0 1.7604514733915613e-05 -2.3564945860824045e-05 0 1.973805400724072e-05 -2.6305934389175178e-05 0 1.7604514733915613e-05 -2.3564945860824045e-05 0 2.0113464817979925e-05 -2.4093448315985821e-05 0 1.973805400724072e-05 -2.6305934389175178e-05 0 2.2221807338780101e-05 -2.6383948241269371e-05 0 2.0113464817979925e-05 -2.4093448315985821e-05 0 2.2125579582596596e-05 -2.8148343040171151e-05 0 1.973805400724072e-05 -2.6305934389175178e-05 0 2.2221807338780101e-05 -2.6383948241269371e-05 0 2.4492985225265752e-05 -2.8170146984417821e-05 0 2.2125579582596596e-05 -2.8148343040171151e-05 0 2.2221807338780101e-05 -2.6383948241269371e-05 0 2.2125579582596596e-05 -2.8148343040171151e-05 0 2.0171584990570515e-05 -2.8546656665932091e-05 0 1.973805400724072e-05 -2.6305934389175178e-05 0 2.9490341630591682e-05 -9.1644725699690979e-05 0 1.7572609036899855e-05 -8.4773415581557634e-05 0 2.0566991961108407e-05 -9.7323202518235353e-05 0 2.1007773925931453e-05 -6.1018981822866597e-05 0 1.8514991880940954e-05 -5.2292638438136376e-05 0 2.9490341630591682e-05 -9.1644725699690979e-05 0 1.7572609036899855e-05 -8.4773415581557634e-05 0 2.6793576350030716e-05 -7.7850098849218939e-05 0 1.2661009518802897e-05 -3.0407048343206729e-05 0 1.4340872403006543e-05 -2.7458909499807054e-05 0 1.0384570253727612e-05 -2.6716890485575807e-05 0 1.4340872403006543e-05 -2.7458909499807054e-05 0 1.1790963180609127e-05 -2.4151130280786609e-05 0 1.0384570253727612e-05 -2.6716890485575807e-05 0 1.6793845370452358e-05 -2.6085124089759649e-05 0 1.4340872403006543e-05 -2.7458909499807054e-05 0 1.4206794588342559e-05 -2.4699859958124271e-05 0 1.4340872403006543e-05 -2.7458909499807054e-05 0 1.4206794588342559e-05 -2.4699859958124271e-05 0 1.1790963180609127e-05 -2.4151130280786609e-05 0 1.8003587923257035e-05 -2.8517625515784353e-05 0 1.4340872403006543e-05 -2.7458909499807054e-05 0 1.7525250455978537e-05 -3.0391702691406138e-05 0 1.2661009518802897e-05 -3.0407048343206729e-05 0 1.4340872403006543e-05 -2.7458909499807054e-05 0 1.5406811050466362e-05 -3.0839160627885166e-05 0 1.4340872403006543e-05 -2.7458909499807054e-05 0 1.5406811050466362e-05 -3.0839160627885166e-05 0 1.7525250455978537e-05 -3.0391702691406138e-05 0 1.5406811050466362e-05 -3.0839160627885166e-05 0 1.7525250455978537e-05 -3.0391702691406138e-05 0 1.8548052130081782e-05 -3.318746885859765e-05 0 1.9811942239557103e-05 -3.1658512184511262e-05 0 1.7525250455978537e-05 -3.0391702691406138e-05 0 1.8548052130081782e-05 -3.318746885859765e-05 0 1.5406811050466362e-05 -3.0839160627885166e-05 0 1.8548052130081782e-05 -3.318746885859765e-05 0 1.5524293261735116e-05 -3.3682811010819225e-05 0 1.8548052130081782e-05 -3.318746885859765e-05 0 1.5524293261735116e-05 -3.3682811010819225e-05 0 1.9101906572690845e-05 -3.6305518673820533e-05 0 3.2360490478817814e-05 -0.00010612963447036894 0 2.0566991961108407e-05 -9.7323202518235353e-05 0 1.4828459918791024e-05 -0.00010919128215190207 0 3.2360490478817814e-05 -0.00010612963447036894 0 2.2269875620281709e-05 -0.00012311816421298048 0 1.4828459918791024e-05 -0.00010919128215190207 0 2.3697614545757853e-05 -6.9932076854929641e-05 0 2.7591528094939368e-05 -7.8806150988207523e-05 0 1.2661009518802897e-05 -3.0407048343206729e-05 0 1.5406811050466362e-05 -3.0839160627885166e-05 0 1.5524293261735116e-05 -3.3682811010819225e-05 0 2.9490341630591682e-05 -9.1644725699690979e-05 0 3.2360490478817814e-05 -0.00010612963447036894 0 2.0566991961108407e-05 -9.7323202518235353e-05 0 2.1007773925931453e-05 -6.1018981822866597e-05 0 2.3697614545757853e-05 -6.9932076854929641e-05 0 3.2360490478817814e-05 -0.00010612963447036894 0 2.2269875620281709e-05 -0.00012311816421298048 0 3.5583800785698088e-05 -0.00012111940931502827 0 2.7591528094939368e-05 -7.8806150988207523e-05 0 2.9678308660447105e-05 -8.695671347259902e-05 0 1.9101906572690845e-05 -3.6305518673820533e-05 0 2.1333184598403438e-05 -3.541528869597112e-05 0 2.3590245377554256e-05 -3.7885374448881801e-05 0 2.2269875620281709e-05 -0.00012311816421298048 0 3.5583800785698088e-05 -0.00012111940931502827 0 3.9383036108984576e-05 -0.00013669890017399677 0 2.2269875620281709e-05 -0.00012311816421298048 0 3.9383036108984576e-05 -0.00013669890017399677 0 2.2149272377555475e-05 -0.00013763726716841152 0 1.9811942239557103e-05 -3.1658512184511262e-05 0 1.8548052130081782e-05 -3.318746885859765e-05 0 2.1889964207911528e-05 -3.4024033791954137e-05 0 1.8548052130081782e-05 -3.318746885859765e-05 0 2.1333184598403438e-05 -3.541528869597112e-05 0 2.1889964207911528e-05 -3.4024033791954137e-05 0 1.8548052130081782e-05 -3.318746885859765e-05 0 1.9101906572690845e-05 -3.6305518673820533e-05 0 2.1333184598403438e-05 -3.541528869597112e-05 0 2.1333184598403438e-05 -3.541528869597112e-05 0 2.1889964207911528e-05 -3.4024033791954137e-05 0 2.427911867888914e-05 -3.5769289828815376e-05 0 2.4775816128114338e-05 -3.4649219432576811e-05 0 2.1889964207911528e-05 -3.4024033791954137e-05 0 2.427911867888914e-05 -3.5769289828815376e-05 0 2.1333184598403438e-05 -3.541528869597112e-05 0 2.427911867888914e-05 -3.5769289828815376e-05 0 2.3590245377554256e-05 -3.7885374448881801e-05 0 2.427911867888914e-05 -3.5769289828815376e-05 0 2.3590245377554256e-05 -3.7885374448881801e-05 0 2.8705508424947373e-05 -3.7990076639021132e-05 0 2.427911867888914e-05 -3.5769289828815376e-05 0 2.7613355042252168e-05 -3.564720838481041e-05 0 2.8705508424947373e-05 -3.7990076639021132e-05 0 2.4775816128114338e-05 -3.4649219432576811e-05 0 2.427911867888914e-05 -3.5769289828815376e-05 0 2.7613355042252168e-05 -3.564720838481041e-05 0 3.9383036108984576e-05 -0.00013669890017399677 0 3.112867608953496e-05 -0.00014550723272354035 0 2.2149272377555475e-05 -0.00013763726716841152 0 2.9678308660447105e-05 -8.695671347259902e-05 0 4.2145442077350059e-05 -9.5726765791733545e-05 0 3.9383036108984576e-05 -0.00013669890017399677 0 4.4457722308852471e-05 -0.00015268808719822214 0 3.112867608953496e-05 -0.00014550723272354035 0 4.4457722308852471e-05 -0.00015268808719822214 0 3.112867608953496e-05 -0.00014550723272354035 0 2.804236808060395e-05 -0.00015552698268086429 0 3.112867608953496e-05 -0.00014550723272354035 0 1.8123874630564824e-05 -0.00014790698304729266 0 2.804236808060395e-05 -0.00015552698268086429 0 1.8123874630564824e-05 -0.00014790698304729266 0 2.804236808060395e-05 -0.00015552698268086429 0 1.1340790278470529e-05 -0.00015681492385410858 0 1.8123874630564824e-05 -0.00014790698304729266 0 2.2149272377555475e-05 -0.00013763726716841152 0 8.0104418250413216e-06 -0.00014205926967134991 0 3.112867608953496e-05 -0.00014550723272354035 0 1.8123874630564824e-05 -0.00014790698304729266 0 2.2149272377555475e-05 -0.00013763726716841152 0 1.8123874630564824e-05 -0.00014790698304729266 0 8.0104418250413216e-06 -0.00014205926967134991 0 1.1340790278470529e-05 -0.00015681492385410858 0 8.0104418250413216e-06 -0.00014205926967134991 0 -4.6279302126980137e-06 -0.00015719384589585493 0 -6.2725493180351409e-06 -0.00013722902708463507 0 -4.6279302126980137e-06 -0.00015719384589585493 0 -6.2725493180351409e-06 -0.00013722902708463507 0 -1.9485883063527342e-05 -0.00014290287936673539 0 8.0104418250413216e-06 -0.00014205926967134991 0 1.1340790278470529e-05 -0.00015681492385410858 0 -4.6279302126980137e-06 -0.00015719384589585493 0 8.0104418250413216e-06 -0.00014205926967134991 0 -6.2725493180351409e-06 -0.00013722902708463507 0 8.3554465267867429e-06 -0.00012612829343565412 0 -6.2725493180351409e-06 -0.00013722902708463507 0 -8.4669715797126367e-06 -0.00011972619680655586 0 8.3554465267867429e-06 -0.00012612829343565412 0 -6.2725493180351409e-06 -0.00013722902708463507 0 -8.4669715797126367e-06 -0.00011972619680655586 0 -2.2576601817252566e-05 -0.00012701652650931754 0 -8.4669715797126367e-06 -0.00011972619680655586 0 8.3554465267867429e-06 -0.00012612829343565412 0 1.369485243589016e-06 -0.0001115538312550477 0 2.2269875620281709e-05 -0.00012311816421298048 0 8.3554465267867429e-06 -0.00012612829343565412 0 1.4828459918791024e-05 -0.00010919128215190207 0 2.2269875620281709e-05 -0.00012311816421298048 0 2.2149272377555475e-05 -0.00013763726716841152 0 8.3554465267867429e-06 -0.00012612829343565412 0 2.2149272377555475e-05 -0.00013763726716841152 0 8.0104418250413216e-06 -0.00014205926967134991 0 8.3554465267867429e-06 -0.00012612829343565412 0 -5.0760625603259547e-05 -0.00014220992385631208 0 -4.0571518910747855e-05 -0.00014872213758021993 0 -3.386204994236453e-05 -0.00014003582014110962 0 -5.0760625603259547e-05 -0.00014220992385631208 0 -5.059379100656323e-05 -0.00015756652828286574 0 -4.0571518910747855e-05 -0.00014872213758021993 0 -5.059379100656323e-05 -0.00015756652828286574 0 -3.5339234465808471e-05 -0.00015737993807146764 0 -4.0571518910747855e-05 -0.00014872213758021993 0 -3.5339234465808471e-05 -0.00015737993807146764 0 -4.0571518910747855e-05 -0.00014872213758021993 0 -2.7946586353182862e-05 -0.00014938223901852653 0 -4.0571518910747855e-05 -0.00014872213758021993 0 -3.386204994236453e-05 -0.00014003582014110962 0 -2.7946586353182862e-05 -0.00014938223901852653 0 -3.386204994236453e-05 -0.00014003582014110962 0 -2.7946586353182862e-05 -0.00014938223901852653 0 -1.9485883063527342e-05 -0.00014290287936673539 0 -2.7946586353182862e-05 -0.00014938223901852653 0 -1.9994145948424348e-05 -0.00015732569565994311 0 -1.9485883063527342e-05 -0.00014290287936673539 0 -3.5339234465808471e-05 -0.00015737993807146764 0 -2.7946586353182862e-05 -0.00014938223901852653 0 -1.9994145948424348e-05 -0.00015732569565994311 0 -4.6279302126980137e-06 -0.00015719384589585493 0 -1.9994145948424348e-05 -0.00015732569565994311 0 -1.9485883063527342e-05 -0.00014290287936673539 0 -6.2725493180351409e-06 -0.00013722902708463507 0 -1.9485883063527342e-05 -0.00014290287936673539 0 -2.2576601817252566e-05 -0.00012701652650931754 0 -8.4669715797126367e-06 -0.00011972619680655586 0 -2.2576601817252566e-05 -0.00012701652650931754 0 -1.9580091992658509e-05 -0.0001096805161374053 0 -2.2576601817252566e-05 -0.00012701652650931754 0 -3.7143034909270631e-05 -0.00012645471471488135 0 -3.2739827239885384e-05 -0.00011241757594885908 0 -3.386204994236453e-05 -0.00014003582014110962 0 -1.9485883063527342e-05 -0.00014290287936673539 0 -2.2576601817252566e-05 -0.00012701652650931754 0 -3.386204994236453e-05 -0.00014003582014110962 0 -2.2576601817252566e-05 -0.00012701652650931754 0 -3.7143034909270631e-05 -0.00012645471471488135 0 -5.0760625603259547e-05 -0.00014220992385631208 0 -3.386204994236453e-05 -0.00014003582014110962 0 -3.7143034909270631e-05 -0.00012645471471488135 0 -3.7143034909270631e-05 -0.00012645471471488135 0 -5.0683166604716374e-05 -0.0001268057407655234 0 -5.0245748475759945e-05 -0.00011138839507769957 0 -5.0760625603259547e-05 -0.00014220992385631208 0 -3.7143034909270631e-05 -0.00012645471471488135 0 -5.0683166604716374e-05 -0.0001268057407655234 0 -5.0245748475759945e-05 -0.00011138839507769957 0 -3.9336893555969279e-05 -0.00010156737309804538 0 -4.928552009649094e-05 -9.6438312713200916e-05 0 -3.7143034909270631e-05 -0.00012645471471488135 0 -5.0245748475759945e-05 -0.00011138839507769957 0 -3.2739827239885384e-05 -0.00011241757594885908 0 -3.2739827239885384e-05 -0.00011241757594885908 0 -3.9336893555969279e-05 -0.00010156737309804538 0 -2.8509461396917273e-05 -9.6170775105330027e-05 0 -5.0245748475759945e-05 -0.00011138839507769957 0 -3.2739827239885384e-05 -0.00011241757594885908 0 -3.9336893555969279e-05 -0.00010156737309804538 0 -3.2739827239885384e-05 -0.00011241757594885908 0 -1.9580091992658509e-05 -0.0001096805161374053 0 -2.8509461396917273e-05 -9.6170775105330027e-05 0 -2.2576601817252566e-05 -0.00012701652650931754 0 -3.2739827239885384e-05 -0.00011241757594885908 0 -1.9580091992658509e-05 -0.0001096805161374053 0 -1.9580091992658509e-05 -0.0001096805161374053 0 -1.776756716569737e-05 -9.5538131306491131e-05 0 -2.8509461396917273e-05 -9.6170775105330027e-05 0 -1.9580091992658509e-05 -0.0001096805161374053 0 -1.776756716569737e-05 -9.5538131306491131e-05 0 -8.6768845190306424e-06 -0.00010314533293320455 0 -1.776756716569737e-05 -9.5538131306491131e-05 0 -2.2416885080767967e-05 -8.6302165358429682e-05 0 -2.8509461396917273e-05 -9.6170775105330027e-05 0 -2.2416885080767967e-05 -8.6302165358429682e-05 0 -1.1003071612402097e-05 -8.6615072932233437e-05 0 -2.0644962402485952e-05 -7.3743079329332493e-05 0 -1.776756716569737e-05 -9.5538131306491131e-05 0 -2.2416885080767967e-05 -8.6302165358429682e-05 0 -1.1003071612402097e-05 -8.6615072932233437e-05 0 -2.2416885080767967e-05 -8.6302165358429682e-05 0 -2.8509461396917273e-05 -9.6170775105330027e-05 0 -3.34506481925301e-05 -8.202944965376081e-05 0 -3.9336893555969279e-05 -0.00010156737309804538 0 -2.8509461396917273e-05 -9.6170775105330027e-05 0 -3.9810483446306222e-05 -9.1333271769261813e-05 0 -2.8509461396917273e-05 -9.6170775105330027e-05 0 -3.9810483446306222e-05 -9.1333271769261813e-05 0 -3.34506481925301e-05 -8.202944965376081e-05 0 -3.9810483446306222e-05 -9.1333271769261813e-05 0 -3.34506481925301e-05 -8.202944965376081e-05 0 -4.7719064362943044e-05 -8.1920590237900346e-05 0 -3.9810483446306222e-05 -9.1333271769261813e-05 0 -4.928552009649094e-05 -9.6438312713200916e-05 0 -4.7719064362943044e-05 -8.1920590237900346e-05 0 -3.9336893555969279e-05 -0.00010156737309804538 0 -3.9810483446306222e-05 -9.1333271769261813e-05 0 -4.928552009649094e-05 -9.6438312713200916e-05 0 1.011376602966378e-06 -9.8404283520887609e-05 0 1.4828459918791024e-05 -0.00010919128215190207 0 1.0368745241646568e-05 -9.298190711608881e-05 0 1.011376602966378e-06 -9.8404283520887609e-05 0 1.4828459918791024e-05 -0.00010919128215190207 0 1.369485243589016e-06 -0.0001115538312550477 0 2.0566991961108407e-05 -9.7323202518235353e-05 0 1.4828459918791024e-05 -0.00010919128215190207 0 1.0368745241646568e-05 -9.298190711608881e-05 0 8.3554465267867429e-06 -0.00012612829343565412 0 1.4828459918791024e-05 -0.00010919128215190207 0 1.369485243589016e-06 -0.0001115538312550477 0 -8.4669715797126367e-06 -0.00011972619680655586 0 1.369485243589016e-06 -0.0001115538312550477 0 -8.6768845190306424e-06 -0.00010314533293320455 0 -8.4669715797126367e-06 -0.00011972619680655586 0 -1.9580091992658509e-05 -0.0001096805161374053 0 -8.6768845190306424e-06 -0.00010314533293320455 0 1.011376602966378e-06 -9.8404283520887609e-05 0 1.369485243589016e-06 -0.0001115538312550477 0 -8.6768845190306424e-06 -0.00010314533293320455 0 1.011376602966378e-06 -9.8404283520887609e-05 0 -1.1003071612402097e-05 -8.6615072932233437e-05 0 1.1284058597480108e-07 -8.4568696784489096e-05 0 1.011376602966378e-06 -9.8404283520887609e-05 0 -8.6768845190306424e-06 -0.00010314533293320455 0 -1.1003071612402097e-05 -8.6615072932233437e-05 0 -1.776756716569737e-05 -9.5538131306491131e-05 0 -8.6768845190306424e-06 -0.00010314533293320455 0 -1.1003071612402097e-05 -8.6615072932233437e-05 0 -1.1003071612402097e-05 -8.6615072932233437e-05 0 1.1284058597480108e-07 -8.4568696784489096e-05 0 -7.1192324092849416e-06 -7.3617124162541749e-05 0 1.1284058597480108e-07 -8.4568696784489096e-05 0 1.0368745241646568e-05 -9.298190711608881e-05 0 8.4987641089263284e-06 -8.1484197411360135e-05 0 1.011376602966378e-06 -9.8404283520887609e-05 0 1.1284058597480108e-07 -8.4568696784489096e-05 0 1.0368745241646568e-05 -9.298190711608881e-05 0 1.7572609036899855e-05 -8.4773415581557634e-05 0 2.0566991961108407e-05 -9.7323202518235353e-05 0 1.0368745241646568e-05 -9.298190711608881e-05 0 1.7572609036899855e-05 -8.4773415581557634e-05 0 1.0368745241646568e-05 -9.298190711608881e-05 0 8.4987641089263284e-06 -8.1484197411360135e-05 0 1.7572609036899855e-05 -8.4773415581557634e-05 0 8.4987641089263284e-06 -8.1484197411360135e-05 0 1.3382071402554217e-05 -7.2323874632098563e-05 0 8.4987641089263284e-06 -8.1484197411360135e-05 0 1.3382071402554217e-05 -7.2323874632098563e-05 0 1.2811349491130409e-06 -7.2965836303847114e-05 0 1.3382071402554217e-05 -7.2323874632098563e-05 0 6.4571863129490378e-06 -6.4292442331934387e-05 0 1.2811349491130409e-06 -7.2965836303847114e-05 0 1.3382071402554217e-05 -7.2323874632098563e-05 0 6.4571863129490378e-06 -6.4292442331934387e-05 0 1.3672690657888462e-05 -6.0051439584665379e-05 0 6.4571863129490378e-06 -6.4292442331934387e-05 0 1.2811349491130409e-06 -7.2965836303847114e-05 0 -1.4873961239006547e-06 -6.2583019493693898e-05 0 1.1284058597480108e-07 -8.4568696784489096e-05 0 8.4987641089263284e-06 -8.1484197411360135e-05 0 1.2811349491130409e-06 -7.2965836303847114e-05 0 1.1284058597480108e-07 -8.4568696784489096e-05 0 1.2811349491130409e-06 -7.2965836303847114e-05 0 -7.1192324092849416e-06 -7.3617124162541749e-05 0 -1.1003071612402097e-05 -8.6615072932233437e-05 0 -7.1192324092849416e-06 -7.3617124162541749e-05 0 -2.0644962402485952e-05 -7.3743079329332493e-05 0 -7.1192324092849416e-06 -7.3617124162541749e-05 0 -1.1157126116048276e-05 -6.2120610981025669e-05 0 -2.0644962402485952e-05 -7.3743079329332493e-05 0 1.2811349491130409e-06 -7.2965836303847114e-05 0 -7.1192324092849416e-06 -7.3617124162541749e-05 0 -1.4873961239006547e-06 -6.2583019493693898e-05 0 -7.1192324092849416e-06 -7.3617124162541749e-05 0 -1.1157126116048276e-05 -6.2120610981025669e-05 0 -1.4873961239006547e-06 -6.2583019493693898e-05 0 -1.1157126116048276e-05 -6.2120610981025669e-05 0 -2.5908821286952209e-06 -5.053375663497045e-05 0 -1.4873961239006547e-06 -6.2583019493693898e-05 0 -1.1157126116048276e-05 -6.2120610981025669e-05 0 -1.745820058566403e-05 -5.4397245943218429e-05 0 -1.0448557552586222e-05 -4.6758208503298213e-05 0 -1.1157126116048276e-05 -6.2120610981025669e-05 0 -2.5908821286952209e-06 -5.053375663497045e-05 0 -1.0448557552586222e-05 -4.6758208503298213e-05 0 -2.5908821286952209e-06 -5.053375663497045e-05 0 5.5942770116728759e-06 -5.3831202341266789e-05 0 4.9785094580064392e-06 -3.9974786134153651e-05 0 5.5942770116728759e-06 -5.3831202341266789e-05 0 4.9785094580064392e-06 -3.9974786134153651e-05 0 1.2551043363227638e-05 -4.6781686221982271e-05 0 6.4571863129490378e-06 -6.4292442331934387e-05 0 5.5942770116728759e-06 -5.3831202341266789e-05 0 1.3672690657888462e-05 -6.0051439584665379e-05 0 -2.5908821286952209e-06 -5.053375663497045e-05 0 5.5942770116728759e-06 -5.3831202341266789e-05 0 -1.4873961239006547e-06 -6.2583019493693898e-05 0 6.4571863129490378e-06 -6.4292442331934387e-05 0 5.5942770116728759e-06 -5.3831202341266789e-05 0 -1.4873961239006547e-06 -6.2583019493693898e-05 0 -4.5517576415707718e-05 -6.8220456501496551e-05 0 -3.9467720946968703e-05 -7.504136227489162e-05 0 -3.135925055547722e-05 -6.7610932606381415e-05 0 -4.5517576415707718e-05 -6.8220456501496551e-05 0 -3.135925055547722e-05 -6.7610932606381415e-05 0 -3.4967067007368769e-05 -5.8157682567318773e-05 0 -3.34506481925301e-05 -8.202944965376081e-05 0 -4.7719064362943044e-05 -8.1920590237900346e-05 0 -3.9467720946968703e-05 -7.504136227489162e-05 0 -4.5517576415707718e-05 -6.8220456501496551e-05 0 -4.7719064362943044e-05 -8.1920590237900346e-05 0 -3.9467720946968703e-05 -7.504136227489162e-05 0 -3.34506481925301e-05 -8.202944965376081e-05 0 -3.9467720946968703e-05 -7.504136227489162e-05 0 -3.135925055547722e-05 -6.7610932606381415e-05 0 -3.135925055547722e-05 -6.7610932606381415e-05 0 -2.0644962402485952e-05 -7.3743079329332493e-05 0 -2.085411731923631e-05 -6.242094908135157e-05 0 -3.34506481925301e-05 -8.202944965376081e-05 0 -3.135925055547722e-05 -6.7610932606381415e-05 0 -2.0644962402485952e-05 -7.3743079329332493e-05 0 -2.2416885080767967e-05 -8.6302165358429682e-05 0 -3.34506481925301e-05 -8.202944965376081e-05 0 -2.0644962402485952e-05 -7.3743079329332493e-05 0 -1.1157126116048276e-05 -6.2120610981025669e-05 0 -2.0644962402485952e-05 -7.3743079329332493e-05 0 -2.085411731923631e-05 -6.242094908135157e-05 0 -2.085411731923631e-05 -6.242094908135157e-05 0 -1.745820058566403e-05 -5.4397245943218429e-05 0 -2.6133576473393454e-05 -5.5123734016889202e-05 0 -1.1157126116048276e-05 -6.2120610981025669e-05 0 -2.085411731923631e-05 -6.242094908135157e-05 0 -1.745820058566403e-05 -5.4397245943218429e-05 0 -1.745820058566403e-05 -5.4397245943218429e-05 0 -1.8971196637944072e-05 -4.6321578951777516e-05 0 -1.0448557552586222e-05 -4.6758208503298213e-05 0 -1.745820058566403e-05 -5.4397245943218429e-05 0 -2.6133576473393454e-05 -5.5123734016889202e-05 0 -1.8971196637944072e-05 -4.6321578951777516e-05 0 -2.6133576473393454e-05 -5.5123734016889202e-05 0 -3.0553826918370838e-05 -4.7123363587809419e-05 0 -1.8971196637944072e-05 -4.6321578951777516e-05 0 -3.135925055547722e-05 -6.7610932606381415e-05 0 -2.085411731923631e-05 -6.242094908135157e-05 0 -2.6133576473393454e-05 -5.5123734016889202e-05 0 -3.135925055547722e-05 -6.7610932606381415e-05 0 -2.6133576473393454e-05 -5.5123734016889202e-05 0 -3.4967067007368769e-05 -5.8157682567318773e-05 0 -2.6133576473393454e-05 -5.5123734016889202e-05 0 -3.4967067007368769e-05 -5.8157682567318773e-05 0 -3.0553826918370838e-05 -4.7123363587809419e-05 0 -3.4967067007368769e-05 -5.8157682567318773e-05 0 -4.2842801257175898e-05 -5.5417777352617045e-05 0 -3.0553826918370838e-05 -4.7123363587809419e-05 0 -4.5517576415707718e-05 -6.8220456501496551e-05 0 -3.4967067007368769e-05 -5.8157682567318773e-05 0 -4.2842801257175898e-05 -5.5417777352617045e-05 0 -3.9674287208230621e-05 -4.3729724029283292e-05 0 -3.038727803157216e-05 -3.7222979934967044e-05 0 -3.5759029799041843e-05 -3.3280179424791783e-05 0 -4.2842801257175898e-05 -5.5417777352617045e-05 0 -3.9674287208230621e-05 -4.3729724029283292e-05 0 -3.0553826918370838e-05 -4.7123363587809419e-05 0 -3.9674287208230621e-05 -4.3729724029283292e-05 0 -3.0553826918370838e-05 -4.7123363587809419e-05 0 -3.038727803157216e-05 -3.7222979934967044e-05 0 -3.0553826918370838e-05 -4.7123363587809419e-05 0 -3.038727803157216e-05 -3.7222979934967044e-05 0 -2.271302943492326e-05 -3.6950526327179909e-05 0 -3.0553826918370838e-05 -4.7123363587809419e-05 0 -2.271302943492326e-05 -3.6950526327179909e-05 0 -1.8971196637944072e-05 -4.6321578951777516e-05 0 -1.8971196637944072e-05 -4.6321578951777516e-05 0 -1.6051985327001346e-05 -3.8273099046410394e-05 0 -1.0448557552586222e-05 -4.6758208503298213e-05 0 -2.271302943492326e-05 -3.6950526327179909e-05 0 -1.8971196637944072e-05 -4.6321578951777516e-05 0 -1.6051985327001346e-05 -3.8273099046410394e-05 0 -1.6051985327001346e-05 -3.8273099046410394e-05 0 -1.7036279699803897e-05 -3.1052301898819996e-05 0 -9.9157393780405611e-06 -3.2660953771652018e-05 0 -2.271302943492326e-05 -3.6950526327179909e-05 0 -1.6051985327001346e-05 -3.8273099046410394e-05 0 -1.7036279699803897e-05 -3.1052301898819996e-05 0 -1.7036279699803897e-05 -3.1052301898819996e-05 0 -1.3690108818254666e-05 -2.3385212874784742e-05 0 -2.3652750765361531e-05 -2.6877340903945993e-05 0 -1.6423541789424395e-05 -1.8804870389126724e-05 0 -1.3690108818254666e-05 -2.3385212874784742e-05 0 -2.3652750765361531e-05 -2.6877340903945993e-05 0 -2.271302943492326e-05 -3.6950526327179909e-05 0 -1.7036279699803897e-05 -3.1052301898819996e-05 0 -2.3652750765361531e-05 -2.6877340903945993e-05 0 -3.038727803157216e-05 -3.7222979934967044e-05 0 -2.3652750765361531e-05 -2.6877340903945993e-05 0 -3.5759029799041843e-05 -3.3280179424791783e-05 0 -3.038727803157216e-05 -3.7222979934967044e-05 0 -2.271302943492326e-05 -3.6950526327179909e-05 0 -2.3652750765361531e-05 -2.6877340903945993e-05 0 -3.1839598536938543e-05 -2.4386691867670966e-05 0 -2.3652750765361531e-05 -2.6877340903945993e-05 0 -3.5759029799041843e-05 -3.3280179424791783e-05 0 4.9785094580064392e-06 -3.9974786134153651e-05 0 -4.0256991269651346e-06 -3.9575319845621017e-05 0 -1.6793658261249019e-06 -2.9916979182954743e-05 0 4.9785094580064392e-06 -3.9974786134153651e-05 0 -1.6793658261249019e-06 -2.9916979182954743e-05 0 5.4767850428192024e-06 -2.6736078032851729e-05 0 -2.5908821286952209e-06 -5.053375663497045e-05 0 4.9785094580064392e-06 -3.9974786134153651e-05 0 -4.0256991269651346e-06 -3.9575319845621017e-05 0 -2.5908821286952209e-06 -5.053375663497045e-05 0 -4.0256991269651346e-06 -3.9575319845621017e-05 0 -1.0448557552586222e-05 -4.6758208503298213e-05 0 -1.6051985327001346e-05 -3.8273099046410394e-05 0 -1.0448557552586222e-05 -4.6758208503298213e-05 0 -9.9157393780405611e-06 -3.2660953771652018e-05 0 -4.0256991269651346e-06 -3.9575319845621017e-05 0 -1.0448557552586222e-05 -4.6758208503298213e-05 0 -9.9157393780405611e-06 -3.2660953771652018e-05 0 -4.0256991269651346e-06 -3.9575319845621017e-05 0 -9.9157393780405611e-06 -3.2660953771652018e-05 0 -1.6793658261249019e-06 -2.9916979182954743e-05 0 -9.9157393780405611e-06 -3.2660953771652018e-05 0 -6.8403998924419816e-06 -2.3546273857417301e-05 0 -1.6793658261249019e-06 -2.9916979182954743e-05 0 -1.7036279699803897e-05 -3.1052301898819996e-05 0 -1.3690108818254666e-05 -2.3385212874784742e-05 0 -9.9157393780405611e-06 -3.2660953771652018e-05 0 -1.0023678172337146e-05 -1.8767603605567613e-05 0 -1.3690108818254666e-05 -2.3385212874784742e-05 0 -6.8403998924419816e-06 -2.3546273857417301e-05 0 -1.3690108818254666e-05 -2.3385212874784742e-05 0 -9.9157393780405611e-06 -3.2660953771652018e-05 0 -6.8403998924419816e-06 -2.3546273857417301e-05 0 -6.8403998924419816e-06 -2.3546273857417301e-05 0 -1.54044383990362e-06 -2.0830306194071876e-05 0 -1.6793658261249019e-06 -2.9916979182954743e-05 0 -1.54044383990362e-06 -2.0830306194071876e-05 0 -1.6793658261249019e-06 -2.9916979182954743e-05 0 5.4767850428192024e-06 -2.6736078032851729e-05 0 3.8835630764818117e-06 -1.7417854994759487e-05 0 -1.54044383990362e-06 -2.0830306194071876e-05 0 5.4767850428192024e-06 -2.6736078032851729e-05 0 3.8835630764818117e-06 -1.7417854994759487e-05 0 8.8856790213500969e-06 -1.4848728731387375e-05 0 5.4767850428192024e-06 -2.6736078032851729e-05 0 8.8856790213500969e-06 -1.4848728731387375e-05 0 7.4199317330036606e-06 -1.2236532945550629e-05 0 7.3800397224595776e-06 -1.180334387820832e-05 0 8.8856790213500969e-06 -1.4848728731387375e-05 0 1.4567671369024764e-05 -2.899321544322384e-05 0 5.4767850428192024e-06 -2.6736078032851729e-05 0 7.7719764212141267e-06 -1.4455961724379e-05 0 1.142182515054706e-05 -2.0902426273782451e-05 0 1.4567671369024764e-05 -2.899321544322384e-05 0 5.4767850428192024e-06 -2.6736078032851729e-05 0 1.1224965245622402e-05 -3.5513317556940762e-05 0 4.9785094580064392e-06 -3.9974786134153651e-05 0 5.4767850428192024e-06 -2.6736078032851729e-05 0 1.1224965245622402e-05 -3.5513317556940762e-05 0 1.142182515054706e-05 -2.0902426273782451e-05 0 1.2730408421138967e-05 -2.7557199797006251e-05 0 1.4567671369024764e-05 -2.899321544322384e-05 0 1.1224965245622402e-05 -3.5513317556940762e-05 0 1.845192594198178e-05 -4.0303568736564513e-05 0 1.2730408421138967e-05 -2.7557199797006251e-05 0 1.4521125432199697e-05 -3.540717078973211e-05 0 1.1224965245622402e-05 -3.5513317556940762e-05 0 1.845192594198178e-05 -4.0303568736564513e-05 0 1.2551043363227638e-05 -4.6781686221982271e-05 0 4.9785094580064392e-06 -3.9974786134153651e-05 0 1.1224965245622402e-05 -3.5513317556940762e-05 0 1.2551043363227638e-05 -4.6781686221982271e-05 0 8.876344872312092e-06 -1.5601329746675296e-05 0 8.3507141181337873e-06 -1.2366365601323106e-05 0 1.0120789799662956e-05 -1.4561392968007894e-05 0 7.1949839835655848e-06 -1.4930453898019808e-05 0 8.876344872312092e-06 -1.5601329746675296e-05 0 7.5523243086146158e-06 -1.8632720598073095e-05 0 7.1949839835655848e-06 -1.4930453898019808e-05 0 8.876344872312092e-06 -1.5601329746675296e-05 0 8.3507141181337873e-06 -1.2366365601323106e-05 0 7.4199317330036606e-06 -1.2236532945550629e-05 0 7.1949839835655848e-06 -1.4930453898019808e-05 0 8.3507141181337873e-06 -1.2366365601323106e-05 0 8.3507141181337873e-06 -1.2366365601323106e-05 0 7.3800397224595776e-06 -1.180334387820832e-05 0 8.5093696548222086e-06 -1.0120355429714096e-05 0 7.4199317330036606e-06 -1.2236532945550629e-05 0 8.3507141181337873e-06 -1.2366365601323106e-05 0 7.3800397224595776e-06 -1.180334387820832e-05 0 7.4863582815078833e-06 -1.0720356072327089e-05 0 8.8856790213500969e-06 -1.4848728731387375e-05 0 7.3800397224595776e-06 -1.180334387820832e-05 0 7.4863582815078833e-06 -1.0720356072327089e-05 0 7.3800397224595776e-06 -1.180334387820832e-05 0 8.5093696548222086e-06 -1.0120355429714096e-05 0 8.3507141181337873e-06 -1.2366365601323106e-05 0 8.5093696548222086e-06 -1.0120355429714096e-05 0 1.0396468895899495e-05 -1.2444109904217957e-05 0 8.5093696548222086e-06 -1.0120355429714096e-05 0 1.0859890143621379e-05 -9.5616283635862295e-06 0 1.0396468895899495e-05 -1.2444109904217957e-05 0 9.5219894214822151e-06 -7.069218849014403e-06 0 8.5093696548222086e-06 -1.0120355429714096e-05 0 1.0859890143621379e-05 -9.5616283635862295e-06 0 1.1128907390018399e-05 -5.4088391133093141e-06 0 1.25425219191178e-05 -8.0784093462295911e-06 0 1.0859890143621379e-05 -9.5616283635862295e-06 0 1.1128907390018399e-05 -5.4088391133093141e-06 0 9.5219894214822151e-06 -7.069218849014403e-06 0 1.0859890143621379e-05 -9.5616283635862295e-06 0 1.25425219191178e-05 -8.0784093462295911e-06 0 1.3554903849570148e-05 -1.1896891480319104e-05 0 1.0859890143621379e-05 -9.5616283635862295e-06 0 1.3554903849570148e-05 -1.1896891480319104e-05 0 1.2238564895430826e-05 -1.2425931072421246e-05 0 1.4458360485980018e-05 -1.5237612223327063e-05 0 1.3554903849570148e-05 -1.1896891480319104e-05 0 1.0859890143621379e-05 -9.5616283635862295e-06 0 1.2238564895430826e-05 -1.2425931072421246e-05 0 1.2238564895430826e-05 -1.2425931072421246e-05 0 1.2750413199157829e-05 -1.4859533402106614e-05 0 1.0396468895899495e-05 -1.2444109904217957e-05 0 1.0859890143621379e-05 -9.5616283635862295e-06 0 1.2238564895430826e-05 -1.2425931072421246e-05 0 1.0396468895899495e-05 -1.2444109904217957e-05 0 1.2238564895430826e-05 -1.2425931072421246e-05 0 1.2750413199157829e-05 -1.4859533402106614e-05 0 1.4458360485980018e-05 -1.5237612223327063e-05 0 8.3507141181337873e-06 -1.2366365601323106e-05 0 1.0396468895899495e-05 -1.2444109904217957e-05 0 1.0120789799662956e-05 -1.4561392968007894e-05 0 1.2750413199157829e-05 -1.4859533402106614e-05 0 1.0396468895899495e-05 -1.2444109904217957e-05 0 1.2260045041660369e-05 -1.6697580304026372e-05 0 1.0396468895899495e-05 -1.2444109904217957e-05 0 1.0120789799662956e-05 -1.4561392968007894e-05 0 1.2260045041660369e-05 -1.6697580304026372e-05 0 1.0120789799662956e-05 -1.4561392968007894e-05 0 1.2260045041660369e-05 -1.6697580304026372e-05 0 1.0503701032752923e-05 -1.8020394202265293e-05 0 1.2260045041660369e-05 -1.6697580304026372e-05 0 1.4798079870627901e-05 -1.7839107591534995e-05 0 1.4892059432622226e-05 -2.0311861123252863e-05 0 1.2260045041660369e-05 -1.6697580304026372e-05 0 1.2625247479155196e-05 -1.9809969475391546e-05 0 1.4892059432622226e-05 -2.0311861123252863e-05 0 1.2260045041660369e-05 -1.6697580304026372e-05 0 1.2625247479155196e-05 -1.9809969475391546e-05 0 1.0503701032752923e-05 -1.8020394202265293e-05 0 1.4458360485980018e-05 -1.5237612223327063e-05 0 1.6817473678338386e-05 -1.8344673399014633e-05 0 1.4798079870627901e-05 -1.7839107591534995e-05 0 1.2750413199157829e-05 -1.4859533402106614e-05 0 1.4458360485980018e-05 -1.5237612223327063e-05 0 1.4798079870627901e-05 -1.7839107591534995e-05 0 1.2750413199157829e-05 -1.4859533402106614e-05 0 1.2260045041660369e-05 -1.6697580304026372e-05 0 1.4798079870627901e-05 -1.7839107591534995e-05 0 1.4798079870627901e-05 -1.7839107591534995e-05 0 1.7766289055820501e-05 -2.1112837625453282e-05 0 1.4892059432622226e-05 -2.0311861123252863e-05 0 1.6817473678338386e-05 -1.8344673399014633e-05 0 1.4798079870627901e-05 -1.7839107591534995e-05 0 1.7766289055820501e-05 -2.1112837625453282e-05 0 2.0999412014439527e-05 -2.2944710024005118e-05 0 1.7766289055820501e-05 -2.1112837625453282e-05 0 2.0113464817979925e-05 -2.4093448315985821e-05 0 1.7766289055820501e-05 -2.1112837625453282e-05 0 1.7604514733915613e-05 -2.3564945860824045e-05 0 1.4892059432622226e-05 -2.0311861123252863e-05 0 1.7766289055820501e-05 -2.1112837625453282e-05 0 1.7604514733915613e-05 -2.3564945860824045e-05 0 2.0113464817979925e-05 -2.4093448315985821e-05 0 1.2625247479155196e-05 -1.9809969475391546e-05 0 1.4960236958173209e-05 -2.2985698796713075e-05 0 1.2763189094676377e-05 -2.2459682279999014e-05 0 1.7604514733915613e-05 -2.3564945860824045e-05 0 1.4892059432622226e-05 -2.0311861123252863e-05 0 1.4960236958173209e-05 -2.2985698796713075e-05 0 1.2625247479155196e-05 -1.9809969475391546e-05 0 1.4892059432622226e-05 -2.0311861123252863e-05 0 1.4960236958173209e-05 -2.2985698796713075e-05 0 1.6793845370452358e-05 -2.6085124089759649e-05 0 1.7604514733915613e-05 -2.3564945860824045e-05 0 1.4960236958173209e-05 -2.2985698796713075e-05 0 1.4960236958173209e-05 -2.2985698796713075e-05 0 1.4206794588342559e-05 -2.4699859958124271e-05 0 1.2763189094676377e-05 -2.2459682279999014e-05 0 1.6793845370452358e-05 -2.6085124089759649e-05 0 1.4960236958173209e-05 -2.2985698796713075e-05 0 1.4206794588342559e-05 -2.4699859958124271e-05 0 1.4206794588342559e-05 -2.4699859958124271e-05 0 1.2763189094676377e-05 -2.2459682279999014e-05 0 1.1790963180609127e-05 -2.4151130280786609e-05 0 1.2763189094676377e-05 -2.2459682279999014e-05 0 1.0442920298399442e-05 -2.0920825304476824e-05 0 1.1790963180609127e-05 -2.4151130280786609e-05 0 1.2625247479155196e-05 -1.9809969475391546e-05 0 1.2763189094676377e-05 -2.2459682279999014e-05 0 1.0442920298399442e-05 -2.0920825304476824e-05 0 1.0442920298399442e-05 -2.0920825304476824e-05 0 1.1790963180609127e-05 -2.4151130280786609e-05 0 8.642295524393842e-06 -2.2759389850426182e-05 0 1.3382071402554217e-05 -7.2323874632098563e-05 0 2.6793576350030716e-05 -7.7850098849218939e-05 0 2.420576024965826e-05 -6.467303910332798e-05 0 1.8514991880940954e-05 -5.2292638438136376e-05 0 1.6375975002104256e-05 -4.3723472407364639e-05 0 1.1790963180609127e-05 -2.4151130280786609e-05 0 1.0384570253727612e-05 -2.6716890485575807e-05 0 8.642295524393842e-06 -2.2759389850426182e-05 0 1.7572609036899855e-05 -8.4773415581557634e-05 0 1.3382071402554217e-05 -7.2323874632098563e-05 0 2.6793576350030716e-05 -7.7850098849218939e-05 0 1.3382071402554217e-05 -7.2323874632098563e-05 0 2.420576024965826e-05 -6.467303910332798e-05 0 1.3672690657888462e-05 -6.0051439584665379e-05 0 2.420576024965826e-05 -6.467303910332798e-05 0 1.3672690657888462e-05 -6.0051439584665379e-05 0 2.147408274819669e-05 -5.2166596856843796e-05 0 1.0442920298399442e-05 -2.0920825304476824e-05 0 8.642295524393842e-06 -2.2759389850426182e-05 0 7.5523243086146158e-06 -1.8632720598073095e-05 0 1.6375975002104256e-05 -4.3723472407364639e-05 0 1.4521125432199697e-05 -3.540717078973211e-05 0 1.3672690657888462e-05 -6.0051439584665379e-05 0 1.2551043363227638e-05 -4.6781686221982271e-05 0 2.147408274819669e-05 -5.2166596856843796e-05 0 5.5942770116728759e-06 -5.3831202341266789e-05 0 1.3672690657888462e-05 -6.0051439584665379e-05 0 1.2551043363227638e-05 -4.6781686221982271e-05 0 1.845192594198178e-05 -4.0303568736564513e-05 0 1.2551043363227638e-05 -4.6781686221982271e-05 0 2.147408274819669e-05 -5.2166596856843796e-05 0 8.876344872312092e-06 -1.5601329746675296e-05 0 7.5523243086146158e-06 -1.8632720598073095e-05 0 1.0503701032752923e-05 -1.8020394202265293e-05 0 8.876344872312092e-06 -1.5601329746675296e-05 0 1.0120789799662956e-05 -1.4561392968007894e-05 0 1.0503701032752923e-05 -1.8020394202265293e-05 0 1.2625247479155196e-05 -1.9809969475391546e-05 0 1.0442920298399442e-05 -2.0920825304476824e-05 0 1.0503701032752923e-05 -1.8020394202265293e-05 0 1.0442920298399442e-05 -2.0920825304476824e-05 0 7.5523243086146158e-06 -1.8632720598073095e-05 0 1.0503701032752923e-05 -1.8020394202265293e-05 0 
</DataArray>
</PointData>
<CellData Scalars="region_id,von_mises_stress,cross_section_updated,displacement_divergence," Vectors="" Tensors="stress,">
<DataArray type="Float64" Name="region_id" format="ascii">
1 1 1 1 1 1 1 1 1 1 1 1 1 1 1 1 1 1 1 1 1 1 1 1 1 1 1 1 1 1 1 1 1 1 1 1 1 1 1 1 1 1 1 1 1 1 1 1 1 1 1 1 1 1 1 1 1 1 1 1 1 1 1 1 1 1 1 1 1 1 1 1 1 1 1 1 1 1 1 1 1 1 1 1 1 1 1 1 1 1 1 1 1 1 1 1 1 1 1 1 1 1 1 1 1 1 1 1 1 1 1 1 1 1 1 1 1 1 1 1 1 1 1 1 1 1 1 1 1 1 1 1 1 1 1 1 1 1 1 1 1 1 1 1 1 1 1 1 1 1 1 1 1 1 1 1 1 1 1 1 1 1 1 1 1 1 1 1 1 1 1 1 1 1 1 1 1 1 1 1 1 1 1 1 1 1 1 1 1 1 1 1 1 1 1 1 1 1 1 1 1 1 1 1 1 1 1 1 1 1 1 1 1 1 1 1 1 1 1 1 1 1 1 1 1 1 1 1 1 1 1 1 1 1 1 1 1 1 1 1 1 1 1 1 1 1 1 1 1 1 1 1 1 1 1 1 1 1 1 1 1 1 1 1 1 1 1 1 1 1 1 1 1 1 1 1 1 1 1 1 1 1 1 1 1 1 1 1 1 1 1 1 1 1 1 1 1 1 1 1 1 1 1 1 1 1 1 1 1 1 1 1 1 1 1 1 1 1 1 1 1 1 1 1 1 1 1 1 1 1 1 1 1 1 1 1 1 1 1 1 1 1 1 1 1 1 1 1 1 1 1 1 1 1 1 1 1 1 1 1 1 1 1 1 1 1 1 1 1 1 1 1 1 1 1 1 1 1 1 1 1 1 1 1 1 1 1 1 1 1 1 1 1 1 1 1 1 1 1 1 1 1 1 1 1 1 1 1 1 1 1 1 1 1 1 1 1 1 1 1 1 1 1 1 1 1 1 1 1 1 1 1 1 1 1 1 1 1 1 1 1 1 1 1 1 1 1 1 1 1 1 1 1 1 1 1 1 1 1 1 1 1 1 1 1 1 1 1 1 1 1 1 1 1 1 1 1 1 1 1 1 1 1 1 1 1 1 1 1 1 1 1 1 1 1 1 1 1 1 1 1 1 1 1 1 1 1 1 1 1 1 1 1 1 1 1 1 1 1 1 1 1 1 1 1 1 1 1 1 1 1 1 1 1 1 1 1 1 3 1 1 3 1 1 3 1 1 1 1 1 1 1 1 1 1 1 1 1 3 1 1 1 1 1 3 1 1 1 1 1 1 1 1 1 1 1 1 1 1 1 1 1 1 1 1 1 1 1 1 1 1 1 1 1 1 1 1 1 1 1 1 1 1 1 1 1 1 1 1 1 1 1 1 1 1 1 1 1 1 1 1 1 1 1 1 1 1 1 1 1 1 1 1 1 1 1 1 1 1 1 1 1 1 1 1 1 1 1 1 1 1 1 1 1 1 1 1 1 1 1 1 1 1 1 1 1 1 1 1 1 1 1 1 1 1 1 1 1 1 1 1 1 1 1 1 1 1 1 1 1 1 1 1 1 1 1 1 1 1 1 1 1 1 1 1 1 1 1 1 1 1 1 1 1 1 1 1 1 1 1 1 1 1 1 1 1 1 1 1 1 1 1 1 3 1 1 1 3 1 1 3 1 1 1 1 1 1 1 1 1 1 1 3 1 1 1 1 3 1 1 1 1 1 1 1 1 1 1 1 1 1 1 1 1 1 1 1 1 1 1 1 1 1 1 1 1 1 1 1 1 1 1 1 1 1 1 1 1 1 1 1 1 1 1 1 1 1 1 1 1 1 1 1 1 1 1 2 1 1 1 1 1 1 1 1 1 1 1 1 1 1 2 1 1 2 1 2 1 1 1 1 1 1 1 1 1 1 1 1 1 2 1 1 1 1 1 1 1 1 1 1 1 1 1 1 1 1 1 1 1 1 1 1 1 1 1 1 1 1 1 1 1 1 1 1 1 1 1 1 1 1 1 1 1 1 1 1 1 1 1 1 1 1 1 1 1 1 1 1 1 1 1 1 1 1 1 1 1 1 1 1 1 1 1 1 1 1 1 1 1 1 1 1 1 1 1 1 1 1 1 1 1 1 1 1 1 1 1 1 1 1 1 1 1 1 1 1 1 1 1 1 1 1 1 1 1 1 1 1 1 1 1 1 1 1 1 1 1 1 1 1 1 1 1 1 1 1 2 1 1 2 1 2 1 1 1 1 1 1 1 1 1 1 1 1 1 1 1 1 1 1 1 1 1 1 1 1 1 1 1 1 1 1 1 1 1 1 1 1 1 1 1 1 1 1 1 1 1 1 1 2 1 1 1 1 1 2 1 1 1 1 1 1 1 
</DataArray>
<DataArray type="Float64" Name="stress" NumberOfComponents="9" format="ascii">
-0.036611011853455791 0.00096397236412736325 0 0.00096397236412736325 -0.0045880095885471976 0 0 0 -0.010299755360500751 -0.033765527630752926 0.0016822882399061623 0 0.0016822882399061623 -0.011233635678539331 0 0 0 -0.011249790827323065 -0.036099478563298912 0.0027310279303958945 0 0.0027310279303958945 0.0018234049156028269 0 0 0 -0.0085690184119240221 -0.033617952049444913 0.0031879108877320411 0 0.0031879108877320411 -0.005222197926201641 0 0 0 -0.0097100374939116402 -0.026712259615146762 0.0072811742957424961 0 0.0072811742957424961 -0.0089085336042804778 0 0 0 -0.0089051983048568113 -0.02670702185082871 0.0072853472433211733 0 0.0072853472433211733 -0.0088917101556544396 0 0 0 -0.0088996830016207871 -0.030668343824292777 0.0070113420276517943 0 0.0070113420276517943 -0.0022844589279914611 0 0 0 -0.0082382006880710595 -0.032619669751037632 0.0064446290824019953 0 0.0064446290824019953 -0.0031382084088829414 0 0 0 -0.0089394695399801459 -0.029549356185030018 0.008416307029149141 0 0.008416307029149141 -0.0024354541681716052 0 0 0 -0.0079962025883004023 -0.022939968934196059 0.0086574799796340623 0 0.0086574799796340623 -0.000665005962050845 0 0 0 -0.0059012437240617242 -0.033932844771213652 0.0089445850146651212 0 0.0089445850146651212 -0.0013705442221274636 0 0 0 -0.0088258472483352807 -0.022544609306007098 0.0099229623486230059 0 0.0099229623486230059 0.00053508922669194547 0 0 0 -0.0055023800198287891 -0.042120016023570281 0.0070538484318674573 0 0.0070538484318674573 -0.00063633863956067717 0 0 0 -0.010689088665782737 -0.032760619558878157 0.0074942421565355275 0 0.0074942421565355275 0.00048755500988835465 0 0 0 -0.0080682661372474505 -0.050766203545542572 0.0026791177997110022 0 0.0026791177997110022 -0.0016517032267441803 0 0 0 -0.013104476693071692 -0.04178455285844964 0.0034554086629005765 0 0.0034554086629005765 -0.00017427265503289438 0 0 0 -0.010489706378370633 -0.03785472983057897 0.0050217850495110098 0 0.0050217850495110098 0.0022359137665816033 0 0 0 -0.0089047040159993419 -0.038433574569305962 0.0071827282182260919 0 0.0071827282182260919 -0.00080520014658773398 0 0 0 -0.0098096936789734274 -0.0033189551098507792 0.010236816602080636 0 0.010236816602080636 -0.0011038829184619986 0 0 0 -0.0011057095070781944 -0.0079900720139706675 0.012742534870364225 0 0.012742534870364225 -0.0016918740804577788 0 0 0 -0.0024204865236071111 -0.0091651961556952523 0.0093316028995020731 0 0.0093316028995020731 -0.0008723343229665708 0 0 0 -0.002509382619665454 -0.017919747756723541 0.011289850288104936 0 0.011289850288104936 -0.0013407903895788741 0 0 0 -0.004815134536575603 -0.018987157049395825 0.010326353109371224 0 0.010326353109371224 -0.0039825060307142612 0 0 0 -0.0057424157700275216 -0.01141607297816425 0.011327419766038863 0 0.011327419766038863 -0.0022488091311587792 0 0 0 -0.0034162205273307582 -0.01167081371333994 0.0098641620850140124 0 0.0098641620850140124 -0.003895171009195013 0 0 0 -0.0038914961806337379 -0.019945658973465064 0.011320633233240692 0 0.011320633233240692 -0.00085378695906993679 0 0 0 -0.0051998614831337449 -0.021049578244618873 0.0085951661471338377 0 0.0085951661471338377 -0.00090208097381455458 0 0 0 -0.0054879148046083556 -0.01755292782238238 0.0094605900027381305 0 0.0094605900027381305 -0.0020548501886958614 0 0 0 -0.0049019445027695622 -0.007051969887802911 0.0091008293385544722 0 0.0091008293385544722 -0.00035583172729542097 0 0 0 -0.001851950403774583 -0.0076464548343495413 0.010313933483300064 0 0.010313933483300064 -0.0016020176109259807 0 0 0 -0.0023121181113188779 -0.0029572642406183718 0.012107926932693552 0 0.012107926932693552 -0.0014688832729603737 0 0 0 -0.0011065368783946886 0.00085750608990952 0.0086758264673382334 0 0.0086758264673382334 0.00028210036457388538 0 0 0 0.00028490161362085265 0.00013223971978485252 0.010669946651192584 0 0.010669946651192584 -0.0011269162621553586 0 0 0 -0.00024866913559262391 0.00011396385622676822 0.0078170699656197155 0 0.0078170699656197155 6.3899977053659407e-05 0 0 0 4.4465958320104304e-05 -0.0084312201612066102 0.011335012067700273 0 0.011335012067700273 -0.00084413090591249629 0 0 0 -0.0023188377667797758 -0.021065185843465742 0.011438097288680985 0 0.011438097288680985 -0.00068143737449310321 0 0 0 -0.0054366558044897113 -0.016914596415465818 0.011343818071266743 0 0.011343818071266743 -0.00095086711320827022 0 0 0 -0.0044663658821685204 -0.010419432373018837 0.0089660075870526997 0 0.0089660075870526997 0.00049123199044184829 0 0 0 -0.0024820500956442473 -0.021071461780442152 0.0093564176576193484 0 0.0093564176576193484 0.00094913651302495905 0 0 0 -0.0050305813168542921 -0.023593136542965423 0.011558123386127913 0 0.011558123386127913 -0.00021737185578104071 0 0 0 -0.0059526270996866169 -0.016135875048665479 0.0089490834226124538 0 0.0089490834226124538 0.00034786674589517078 0 0 0 -0.0039470020756925796 -0.01111161626621879 0.01183540878330611 0 0.01183540878330611 0.001286800830444305 0 0 0 -0.0024562038589436216 -0.011288306246694869 0.0089104594683224146 0 0.0089104594683224146 0.0016913614782944472 0 0 0 -0.0023992361921001009 -0.0014716466428587431 0.0080993642856533373 0 0.0080993642856533373 0.001116327082938483 0 0 0 -8.8829889980066815e-05 -0.010325623214036682 0.011632266701403285 0 0.011632266701403285 -0.00020025759053149406 0 0 0 -0.0026314702011420426 -0.007218949301703117 0.0073269708031807879 0 0.0073269708031807879 0.0024639881586731821 0 0 0 -0.0011887402857574786 0.0074378139302509003 0.0071647905299786156 0 0.0071647905299786156 0.00099446181712116791 0 0 0 0.0021080689368430175 -0.00034535297705440803 0.0095538152267025597 0 0.0095538152267025597 0.0010739273670350158 0 0 0 0.00018214359749515151 -0.049271082690105418 0.0031252888138508647 0 0.0031252888138508647 -0.0018373466118940286 0 0 0 -0.012777107325499868 -0.039248660851573719 0.0085715491707588198 0 0.0085715491707588198 -7.2862368772054487e-05 0 0 0 -0.0098303808050864416 -0.059107988097168239 0.0045345604981884956 0 0.0045345604981884956 -0.00029621858379466105 0 0 0 -0.014851051670240723 -0.040748422095283392 0.0061830944316254074 0 0.0061830944316254074 0.0014769761249316948 0 0 0 -0.0098178614925879294 -0.030698388932767072 0.0085107009238396553 0 0.0085107009238396553 0.00092825806299315361 0 0 0 -0.0074425327174434796 -0.031683022561719794 0.0094110182880614464 0 0.0094110182880614464 -0.00062953184094741155 0 0 0 -0.0080781386006667996 -0.032298882908988545 0.010775705289493707 0 0.010775705289493707 -0.0005315963337521306 0 0 0 -0.0082076198106851624 -0.037212374249941102 0.007102918234998863 0 0.007102918234998863 0.00098075325784994713 0 0 0 -0.0090579052480227844 -0.025595066345639315 0.0087427467276305904 0 0.0087427467276305904 0.00012974171511900834 0 0 0 -0.006366331157630075 -0.038623795726330484 0.010047610300134178 0 0.010047610300134178 -0.00038591386917146298 0 0 0 -0.0097524273988754927 -0.029736285557319588 0.0078240785955841479 0 0.0078240785955841479 -1.4535452886245415e-05 0 0 0 -0.0074377052525514617 -0.037718580757493819 0.0077113852781741671 0 0.0077113852781741671 0.00099559219485897618 0 0 0 -0.0091807471406587168 -0.052509492312203219 0.00582082263307079 0 0.00582082263307079 -0.00026803462626859981 0 0 0 -0.013194381734617958 -0.050469875310223324 0.0060262803029142555 0 0.0060262803029142555 -0.00059109551627125126 0 0 0 -0.012765242706623652 -0.049064124423658997 0.003778850349654899 0 0.003778850349654899 0.00067191927372676347 0 0 0 -0.012098051287483057 -0.066633751630043939 0.0044193306491088161 0 0.0044193306491088161 -0.00035039420700649915 0 0 0 -0.016746036459262609 -0.070332604748770317 0.0037400787596935103 0 0.0037400787596935103 -0.00020572351603408839 0 0 0 -0.01763458206620111 -0.051290983200753648 0.0049284535482963677 0 0.0049284535482963677 0.0016630558544976463 0 0 0 -0.012406981836563993 -0.058327245542624764 0.0031979377440300785 0 0.0031979377440300785 0.0012153441982855617 0 0 0 -0.014277975336084787 -0.080634828086134189 0.0024475786169914845 0 0.0024475786169914845 0.0016718028716821709 0 0 0 -0.019740756303613004 -0.060594418215958776 0.0072655887619379311 0 0.0072655887619379311 0.0024419771914522825 0 0 0 -0.014538110256126613 -0.058592662899688723 0.0012342153606034606 0 0.0012342153606034606 0.00025906711961018458 0 0 0 -0.014583398945019664 -0.064003393205604275 0.0027377728440988042 0 0.0027377728440988042 0.0030506586030562832 0 0 0 -0.015238183650636991 -0.089340264771556835 -0.00037204610035286578 0 -0.00037204610035286578 -0.00017564132489918116 0 0 0 -0.022378976524113997 -0.035051649159336791 0.0030477492050924038 0 0.0030477492050924038 0.0047963803400788915 0 0 0 -0.0075638172048144766 -0.029146104360760636 0.0099840454122543595 0 0.0099840454122543595 0.0034412251574179459 0 0 0 -0.0064262198008356794 -0.044942544226043692 0.0066683242597797253 0 0.0066683242597797253 0.0004440355628555423 0 0 0 -0.011124627165797034 -0.044235481381688938 0.0071663769312565427 0 0.0071663769312565427 0.0025179111070392363 0 0 0 -0.01042939256866245 -0.029353365375884181 0.010788888339035824 0 0.010788888339035824 0.0024061668038190369 0 0 0 -0.0067367996430162842 -0.052599752874285803 0.010095829522124549 0 0.010095829522124549 0.0029214216393918663 0 0 0 -0.012419582808723476 -0.043172565407695568 0.0063666907727323949 0 0.0063666907727323949 4.6268659629797315e-05 0 0 0 -0.010781574187016436 -0.039122476517660036 0.01041067713569011 0 0.01041067713569011 0.0014436388385452338 0 0 0 -0.0094197094197786962 -0.027281511828440339 0.010842845890919342 0 0.010842845890919342 0.0011759896350645371 0 0 0 -0.0065263805483439588 -0.016987774807858024 0.010198285462346314 0 0.010198285462346314 0.0015156123764189476 0 0 0 -0.0038680406078597683 -0.01672322995531899 0.0081868333727012788 0 0.0081868333727012788 0.0022362488733449087 0 0 0 -0.003621745270493526 -0.014807714068035733 0.0075513280546135181 0 0.0075513280546135181 0.0044165729597397604 0 0 0 -0.002597785277073994 -0.0063972523220670085 0.0098568905920201431 0 0.0098568905920201431 0.00208024675857129 0 0 0 -0.0010792513908739337 -0.028861226857152218 0.0083338223470055487 0 0.0083338223470055487 0.002375827538649837 0 0 0 -0.0066213498296255925 0.0021959124203758977 0.0064104544187757722 0 0.0064104544187757722 0.0042071582020255308 0 0 0 0.0016007676556003573 -0.0003457538758564223 0.010126135373812168 0 0.010126135373812168 0.00093962228366884079 0 0 0 0.0001484671019531047 -0.0043172803007481258 0.0061194824757301904 0 0.0061194824757301904 0.0052783509559643713 0 0 0 0.00024026766380406007 0.0091722963371503943 0.0025566116750327631 0 0.0025566116750327631 0.0072191272395105595 0 0 0 0.0040978558941652385 0.0059877325143463354 0.0083722482133273667 0 0.0083722482133273667 0.0039045181527650255 0 0 0 0.0024730626667778394 -0.0021986783230491143 0.0061252986341091692 0 0.0061252986341091692 0.0088128723013725929 0 0 0 0.0016535484945808705 0.011430678087501825 0.0039066757052219694 0 0.0039066757052219694 0.0090606653704038975 0 0 0 0.0051228358644764306 0.01124804534091664 0.0027583908965452958 0 0.0027583908965452958 0.014381950059377369 0 0 0 0.0064074988500734953 -0.01592349725571144 0.010401506480434471 0 0.010401506480434471 0.0033641710550110088 0 0 0 -0.003139831550175106 -0.02323889319981123 0.0054504697519209347 0 0.0054504697519209347 0.0040721701385970921 0 0 0 -0.0047916807653035458 -0.002813567062897062 0.0069854192899030457 0 0.0069854192899030457 0.0045180834002801484 0 0 0 0.00042612908434576727 -0.0097514895607667251 0.0038214486880614601 0 0.0038214486880614601 0.0075028798025495169 0 0 0 -0.0005621524395543042 -0.014458055789605663 0.0095802241117244891 0 0.0095802241117244891 0.0076898271138575169 0 0 0 -0.0016920571689370348 -0.0219959832255123 0.008596970641335043 0 0.008596970641335043 0.0094797747472570304 0 0 0 -0.0031290521195638243 -0.011871703388983385 0.0042676715732415105 0 0.0042676715732415105 0.018926892369258791 0 0 0 0.0017637972450688516 -0.020130648026385603 -0.00054721285074805365 0 -0.00054721285074805365 0.010003168882916941 0 0 0 -0.0025318697858671552 0.028471709616562535 -0.0010924660413726764 0 -0.0010924660413726764 0.01763965489889649 0 0 0 0.011527841128864756 -0.004919294080929483 0.0067314099760069843 0 0.0067314099760069843 0.013565313617256519 0 0 0 0.0021615048840817538 0.0070573562315515322 0.0014425610281703083 0 0.0014425610281703083 0.014553522085531317 0 0 0 0.0054027195792707185 0.010433409453949799 0.0030893291923944355 0 0.0030893291923944355 0.024022617270042734 0 0 0 0.0086140066809981264 0.022989054209049981 -0.0044243580027566523 0 -0.0044243580027566523 0.026016047610297299 0 0 0 0.012251275454836813 0.0071460948738576724 -0.0003517045114679318 0 -0.0003517045114679318 0.036053044646147725 0 0 0 0.010799784880001342 0.0054870241517720741 -0.0090412447827939585 0 -0.0090412447827939585 0.034447587464387586 0 0 0 0.0099836529040399358 0.01333924914605724 -0.013576105150711837 0 -0.013576105150711837 0.02979183296736862 0 0 0 0.01078277052835646 0.025449917381281051 -0.0068125025456648586 0 -0.0068125025456648586 0.054833171045277407 0 0 0 0.020070772106639601 -0.017097000028634568 -0.0044877107179077946 0 -0.0044877107179077946 0.022242935480699666 0 0 0 0.0012864838630162606 6.8431513996533577e-05 -0.0032456852061035768 0 -0.0032456852061035768 0.017491879776160221 0 0 0 0.0043900778225391818 -0.0010168353020357443 -0.012657213551081986 0 -0.012657213551081986 0.021269411856052578 0 0 0 0.0050631441385042067 -0.020803795883610227 -0.0014791987288803889 0 -0.0014791987288803889 0.011672841666612532 0 0 0 -0.0022827385542494305 -0.024748152937348215 -0.0099962399013373004 0 -0.0099962399013373004 0.01316129253015591 0 0 0 -0.0028967151017980572 -0.03925996847099178 -0.0046358854001598004 0 -0.0046358854001598004 0.0092251253213559703 0 0 0 -0.0075087107874089593 -0.046209757225517928 0.0022884483663272448 0 0.0022884483663272448 0.0053534619517150439 0 0 0 -0.010214073818450742 -0.054805388759489981 -0.0082755984440549823 0 -0.0082755984440549823 0.0075491616282715307 0 0 0 -0.011814056782804616 -0.062901231532963342 0.00055120816405693218 0 0.00055120816405693218 0.0028656616079866248 0 0 0 -0.015008892481244165 -0.091423816080712872 -0.00098056107716557039 0 -0.00098056107716557039 0.0035450558179004332 0 0 0 -0.02196969006570311 -0.067331004370288924 0.0017737676858956553 0 0.0017737676858956553 0.0029955231633532753 0 0 0 -0.016083870301733888 -0.065312135926886367 -0.002328724518293912 0 -0.002328724518293912 0.0032566159760452629 0 0 0 -0.015513879987710283 -0.06995609943817889 -0.001092248697562595 0 -0.001092248697562595 0.00039498390191206045 0 0 0 -0.017390278884066704 -0.058242235198676509 0.0061443067769643561 0 0.0061443067769643561 0.0029031166864876834 0 0 0 -0.013834779628047203 -0.092877130198452645 0.0026059016228899695 0 0.0026059016228899695 0.001327548924069083 0 0 0 -0.022887395318595884 -0.068125416013761542 0.0062404939971366646 0 0.0062404939971366646 0.002399899479002543 0 0 0 -0.01643137913368975 -0.044598766568158019 0.008381835207009157 0 0.008381835207009157 0.0051084352933940536 0 0 0 -0.009872582818690967 -0.032865581068961244 0.0057110377564951464 0 0.0057110377564951464 0.0086147753621241829 0 0 0 -0.0060627014267092688 -0.047497206722481672 -0.0001375455258653957 0 -0.0001375455258653957 0.0051090550940129272 0 0 0 -0.010597037907117217 0.024350028150778906 -0.0086014957974345115 0 -0.0086014957974345115 0.045362033827750087 0 0 0 0.01742801549463225 0.024853893434821681 -0.0095489267960360349 0 -0.0095489267960360349 0.037876390167290788 0 0 0 0.01568257090052811 0.023769064744866609 -0.0099792413745647297 0 -0.0099792413745647297 0.033067372258607175 0 0 0 0.014209109250868449 0.021612972067154991 -0.0068900276305318212 0 -0.0068900276305318212 0.040578094863909196 0 0 0 0.015547766732766054 0.025042279993174456 -0.0023526481296147882 0 -0.0023526481296147882 0.046014919581117038 0 0 0 0.017764299893572883 0.026921799094512811 -0.0034955910415656807 0 -0.0034955910415656807 0.051626063773780817 0 0 0 0.019636965717073414 0.022991259301520496 -0.0090863461470899881 0 -0.0090863461470899881 0.050989210842386549 0 0 0 0.018495117535976748 0.022457598260295905 -0.0082277287621341302 0 -0.0082277287621341302 0.047891917041275128 0 0 0 0.017587378825392741 0.026662187181941348 -0.0090058638088235596 0 -0.0090058638088235596 0.049203169983536868 0 0 0 0.018966339291369545 0.025584160486415743 -0.0080444171871028453 0 -0.0080444171871028453 0.045413182134328767 0 0 0 0.017749335655186126 0.019148646642102231 -0.0065762019470562566 0 -0.0065762019470562566 0.043866123809779098 0 0 0 0.015753692612970334 0.022629881069041936 -0.0094059510491717284 0 -0.0094059510491717284 0.048363809021501752 0 0 0 0.01774842252263592 0.020576600342750682 -0.010687268612398104 0 -0.010687268612398104 0.045700707043117933 0 0 0 0.016569326846467163 0.021761183191465951 -0.012695236641597963 0 -0.012695236641597963 0.048704296647837125 0 0 0 0.017616369959825767 0.023519846741792631 -0.0075672868720378234 0 -0.0075672868720378234 0.05756502428702584 0 0 0 0.020271217757204626 0.054876759186997581 -0.038645616936369712 0 -0.038645616936369712 0.088564263735396387 0 0 0 0.035860255730598492 0.017909140037513246 -0.021289936212091659 0 -0.021289936212091659 0.05567878952676325 0 0 0 0.018396982391069128 0.049845799905574376 -0.026061618312740377 0 -0.026061618312740377 0.048699906114361202 0 0 0 0.024636426504983905 0.018142731096426258 -0.012675971211641018 0 -0.012675971211641018 0.049071522808099441 0 0 0 0.016803563476131426 0.056159466109436604 -0.0047962931812884912 0 -0.0047962931812884912 0.080896223486859986 0 0 0 0.034263922399074151 0.042847671656186498 -0.014723691735214921 0 -0.014723691735214921 0.044082533061855111 0 0 0 0.021732551179510409 0.079498115624172999 -0.019918289511322296 0 -0.019918289511322296 0.055329541312093333 0 0 0 0.033706914234066576 0.038538971844451174 -0.013977946853643536 0 -0.013977946853643536 0.041046436979422382 0 0 0 0.019896352205968408 0.028164808054654392 -0.001586705512874223 0 -0.001586705512874223 0.041962389129098034 0 0 0 0.017531799295938108 0.050014348904598896 -0.0093777542806558895 0 -0.0093777542806558895 0.032231995198683583 0 0 0 0.020561586025820616 0.025800109727963792 -0.0041653737585704911 0 -0.0041653737585704911 0.025462692651026742 0 0 0 0.012815700594747629 0.03385023966200186 -0.0054015938758883338 0 -0.0054015938758883338 0.018946036678845007 0 0 0 0.013199069085211724 0.029151866328563088 -0.017129934717632453 0 -0.017129934717632453 0.042565509947475488 0 0 0 0.017929344069009642 0.025363824690090738 -0.015722253913669118 0 -0.015722253913669118 0.032177827323283739 0 0 0 0.014385413003343613 0.034252712353586692 -0.01436630063634322 0 -0.01436630063634322 0.035085930730842527 0 0 0 0.017334660771107308 0.024577953235130585 -0.0084695677892910638 0 -0.0084695677892910638 0.019363553944664224 0 0 0 0.010985376794948699 0.027191236389660364 -0.0099758576403004857 0 -0.0099758576403004857 0.033363132025051909 0 0 0 0.015138592103678069 0.025733908373973866 -0.0074436322228917488 0 -0.0074436322228917488 0.021420377157999167 0 0 0 0.011788571382993253 0.024017423537527244 -0.001095311257129185 0 -0.001095311257129185 0.018537555198057224 0 0 0 0.010638744683896105 0.0226399483454853 -0.001080357561951413 0 -0.001080357561951413 0.011222600387474198 0 0 0 0.0084656371832398832 0.021395734511805285 -0.0030960011952864894 0 -0.0030960011952864894 0.017453873844521742 0 0 0 0.0097124020890817508 0.025975664246792842 -0.0039157386512465491 0 -0.0039157386512465491 0.013911596769845103 0 0 0 0.0099718152541594905 0.020871303588229626 0.0005229044903089803 0 0.0005229044903089803 0.014452751405229905 0 0 0 0.0088310137483648757 0.013622399835712751 0.0046585126532927628 0 0.0046585126532927628 0.0093322736414211231 0 0 0 0.0057386683692834646 0.019282703465324985 -0.00044808751562066054 0 -0.00044808751562066054 0.0088318073409770284 0 0 0 0.0070286277015755025 0.016252208182562723 0.0049908623909713599 0 0.0049908623909713599 0.007074559618403844 0 0 0 0.0058316919502416362 0.013475680299816276 0.0034304342705636353 0 0.0034304342705636353 0.004434560611231441 0 0 0 0.0044775602277619276 0.009045761239379722 0.0079248098274619667 0 0.0079248098274619667 0.0033262697244527475 0 0 0 0.0030930077409581191 0.023760682725592182 -0.0016392921168123572 0 -0.0016392921168123572 0.013194318580632523 0 0 0 0.0092387503265561766 0.023144651107760338 -0.0021799232122294314 0 -0.0021799232122294314 0.011917409719637459 0 0 0 0.0087655152068494488 0.02057943110711493 0.0020598783986167735 0 0.0020598783986167735 0.010136213700294947 0 0 0 0.0076789112018524602 0.019243408740344838 0.0013123199311250366 0 0.0013123199311250366 0.0084104781499894851 0 0 0 0.0069134717225835815 0.023097705075628552 -0.0004958386012929234 0 -0.0004958386012929234 0.014832828650492859 0 0 0 0.0094826334315303556 0.023815350376073761 0.0036489435353865667 0 0.0036489435353865667 0.0093477955686241451 0 0 0 0.008290786486174484 0.027762552067164496 0.0032492669356709259 0 0.0032492669356709259 0.015065902768726266 0 0 0 0.010707113708972701 0.028722634172882219 0.0023401880747351816 0 0.0023401880747351816 0.014597795485455929 0 0 0 0.010830107414584534 0.025916171032264346 -0.0015612613834866933 0 -0.0015612613834866933 0.017913194015848611 0 0 0 0.010957341262028238 0.02577993053406006 -0.0014083877970542513 0 -0.0014083877970542513 0.02175648283666845 0 0 0 0.011884103342682124 0.023635307291188137 -0.0032201937916380673 0 -0.0032201937916380673 0.019477298464758899 0 0 0 0.010778151438986758 0.027472941454123101 -0.0033958292049237468 0 -0.0033958292049237468 0.031081670146191794 0 0 0 0.014638652900078734 0.027457550323130017 0.0003389077049484393 0 0.0003389077049484393 0.023661787473836224 0 0 0 0.012779834449241568 0.023157880380360006 -0.0051206232580397549 0 -0.0051206232580397549 0.028738042944169966 0 0 0 0.01297398083113249 0.025567685950121904 -0.0063666164320813311 0 -0.0063666164320813311 0.036676749111255742 0 0 0 0.015561108765344415 0.023619445624614686 -0.0079890627525538715 0 -0.0079890627525538715 0.02613416790910611 0 0 0 0.012438403383430194 0.030977652260730057 0.0014329640515901871 0 0.0014329640515901871 0.049670254125019665 0 0 0 0.020161976596437432 0.024635312707045928 -0.001716875798123834 0 -0.001716875798123834 0.034352606226060359 0 0 0 0.014746979733276565 0.027303883453087065 -0.0031624734599296246 0 -0.0031624734599296246 0.041640124514169805 0 0 0 0.017236001991814225 0.028283274265054243 0.00018576484535845657 0 0.00018576484535845657 0.02618840641392494 0 0 0 0.013617920169744786 0.030736401880563202 0.0026671147376687563 0 0.0026671147376687563 0.034700949951933104 0 0 0 0.016359337958124085 0.030578964922517948 0.0026409044638289378 0 0.0026409044638289378 0.034020348510312208 0 0 0 0.016149828358207521 0.031990437188196386 0.0037492040029573591 0 0.0037492040029573591 0.020446222496070556 0 0 0 0.013109164921066729 0.031586731877893702 0.004441768015692342 0 0.004441768015692342 0.020965869633967682 0 0 0 0.013138150377965348 0.035552383199182247 0.0065620466318430867 0 0.0065620466318430867 0.016738770551327359 0 0 0 0.013072788437627415 0.034373170523671351 0.006243696276296876 0 0.006243696276296876 0.010509657104750485 0 0 0 0.011220706907105461 0.031284265814970728 0.0042078355074893267 0 0.0042078355074893267 0.0058252533324912904 0 0 0 0.0092773797868655038 0.030763693960479191 0.005374612646224762 0 0.005374612646224762 0.011546243820861106 0 0 0 0.010577484445335076 0.03219984350789911 0.0040449799444177443 0 0.0040449799444177443 0.012292740193181786 0 0 0 0.011123145925270233 0.025406180309180227 0.0017696094492470659 0 0.0017696094492470659 0.010489998381200898 0 0 0 0.0089740446725952751 0.024873056640502302 0.0049212108027504985 0 0.0049212108027504985 0.0062598745447629781 0 0 0 0.0077832327963163195 0.028153812088102241 0.0049413948329540503 0 0.0049413948329540503 0.0065588663159743786 0 0 0 0.0086781696010191558 0.028988852928357609 0.0046712027737664166 0 0.0046712027737664166 0.010362648837990557 0 0 0 0.0098378754415870372 0.029247662209069835 0.0046327249297627229 0 0.0046327249297627229 0.0041793404064825734 0 0 0 0.008356750653888103 0.028766354760627312 0.0060367131783397657 0 0.0060367131783397657 0.0028358898975982122 0 0 0 0.0079005611645563776 0.024117939453530336 0.0056726760344813273 0 0.0056726760344813273 0.0031489829110288164 0 0 0 0.0068167305911397882 0.032163885745354504 0.0056891079725648851 0 0.0056891079725648851 0.0023478975616267345 0 0 0 0.0086279458267453091 0.032020346076447909 0.0042746940379923852 0 0.0042746940379923852 0.0024271814568030889 0 0 0 0.0086118818833127476 0.035578080687761228 0.0052626528541417387 0 0.0052626528541417387 0.0037590706362193842 0 0 0 0.00983428783099515 0.033627575037633389 0.0042108590982138858 0 0.0042108590982138858 0.0036620078759341916 0 0 0 0.0093223957283918996 0.031913406564965129 0.005674768280800959 0 0.005674768280800959 0.0057253974319120826 0 0 0 0.0094097009992192993 0.0083780936291482661 0.0070136433938908609 0 0.0070136433938908609 0.0046534015505402017 0 0 0 0.0032578737949221174 0.015038620193539472 0.0057373903550120009 0 0.0057373903550120009 0.0021001586052886954 0 0 0 0.0042846946997070409 0.0083987878900798653 0.0077147325426274102 0 0.0077147325426274102 0.0020550956576975317 0 0 0 0.0026134708869443475 0.01902844277105567 0.0048586518995015274 0 0.0048586518995015274 0.0014065527181810478 0 0 0 0.005108748872309183 0.016154007579323632 0.0059073315407099604 0 0.0059073315407099604 0.0059616137308666356 0 0 0 0.0055289053275475661 0.019875019188523267 0.0050566917212054672 0 0.0050566917212054672 0.0048150902423657119 0 0 0 0.0061725273577222456 0.021915244548114315 0.0024986355331064716 0 0.0024986355331064716 0.0054835812376809248 0 0 0 0.0068497064464488177 0.021656500162934345 0.0062703835870849753 0 0.0062703835870849753 0.0070905291365676235 0 0 0 0.007186757324875493 0.023625912983195906 0.0045325116659854234 0 0.0045325116659854234 0.0024259413653720668 0 0 0 0.0065129635871419914 0.02008568665738562 0.005098859043025681 0 0.005098859043025681 0.0031608945703851463 0 0 0 0.0058116453069426881 0.023592430794073867 0.0069581011573281934 0 0.0069581011573281934 0.0014950322866743668 0 0 0 0.006271865770187058 0.017295810335375698 0.0074410210314564493 0 0.0074410210314564493 0.0033671305960523822 0 0 0 0.0051657352328570187 0.016187370586548337 0.0068460523059117751 0 0.0068460523059117751 0.00096351077419663117 0 0 0 0.0042877203401862421 0.009191041963092823 0.007497775433473429 0 0.007497775433473429 0.0011489905640819191 0 0 0 0.0025850081317936851 0.0078489894510589044 0.0094622568328641132 0 0.0094622568328641132 0.00014735547557165329 0 0 0 0.0019990862316576399 0.0081509958576120086 0.0078463789983071984 0 0.0078463789983071984 0.00070609883673093676 0 0 0 0.002214273673585735 0.0015971061335391251 0.0098692739947447289 0 0.0098692739947447289 0.00019502687797836454 0 0 0 0.00044803325287937415 0.0054677609762606499 0.010931776119948781 0 0.010931776119948781 -0.00022180770215075819 0 0 0 0.001311488318527475 0.00072830062045579208 0.0093155014641780349 0 0.0093155014641780349 0.00096579397131899003 0 0 0 0.00042352364794369379 0.0062119518982756017 0.0078651786859696583 0 0.0078651786859696583 -0.0001741667241684855 0 0 0 0.0015094462935267769 0.012462600860519132 0.0093708133729613063 0 0.0093708133729613063 0.00056451409931968649 0 0 0 0.0032567787399597056 0.011369683506600746 0.008156550480767806 0 0.008156550480767806 0.0009467265154482693 0 0 0 0.0030791025055122538 0.013456578239284863 0.0098362911937202938 0 0.0098362911937202938 0.00082601535750263843 0 0 0 0.0035706483991968779 0.017299653359879034 0.0066307139208176659 0 0.0066307139208176659 0.00084568903517507482 0 0 0 0.0045363355987635273 0.018301759542534657 0.0074186100495772225 0 0.0074186100495772225 0.0021807600287413881 0 0 0 0.0051206298928190112 0.022838839545726394 0.0078210941067030915 0 0.0078210941067030915 0.00088470783604214717 0 0 0 0.0059308868454421345 0.018355387490098685 0.0070825894895509616 0 0.0070825894895509616 0.0035225138235965292 0 0 0 0.0054694753284238035 0.015842627171958435 0.010275190471586466 0 0.010275190471586466 0.0020873990010662827 0 0 0 0.0044825065432561803 0.01398507787547257 0.0088505460715734476 0 0.0088505460715734476 0.0046616609480156892 0 0 0 0.0046616847058720658 0.0086616794870048256 0.011931589671201023 0 0.011931589671201023 0.00070401263262240624 0 0 0 0.0023414230299068084 0.0055789191434866287 0.009730280525219244 0 0.009730280525219244 0.0018578000226173461 0 0 0 0.0018591797915259939 0.00068804104287586987 0.012869062743903387 0 0.012869062743903387 -0.0010854673571994364 0 0 0 -9.9356578580891627e-05 0.031221247561129185 0.0043453269799330419 0 0.0043453269799330419 0.0030483522431770833 0 0 0 0.0085673999510765628 0.032281021838001057 0.0049317386378195955 0 0.0049317386378195955 0.0021834767757288459 0 0 0 0.0086161246534324776 0.028189095779539996 0.0055335809687013853 0 0.0055335809687013853 0.0024573045895194268 0 0 0 0.0076616000922648539 0.028069241276996185 0.0060985924861060112 0 0.0060985924861060112 0.0013703017039447696 0 0 0 0.0073598857452352407 0.023730950779130556 0.0063239064013610206 0 0.0063239064013610206 0.003009093470576811 0 0 0 0.0066850110624268426 0.026521570822743312 0.0062248327584157213 0 0.0062248327584157213 0.0031849649598152292 0 0 0 0.0074266339456396345 0.021295956814496059 0.0074115615095630607 0 0.0074115615095630607 0.0070947287213044283 0 0 0 0.0070976713839501207 0.021419030114856529 0.0084485300854639008 0 0.0084485300854639008 0.0043932136450734313 0 0 0 0.0064530609399824886 0.025466659873540829 0.006337895621854695 0 0.006337895621854695 0.008487859190513555 0 0 0 0.0084886297660135956 0.025741686725958696 0.0062606357549102477 0 0.0062606357549102477 0.0046689529313702263 0 0 0 0.0076026599143322309 0.030743963652912105 0.0041128519787984588 0 0.0041128519787984588 0.0054475572560882483 0 0 0 0.0090478802272500897 0.02858403871960306 0.0053063807078368398 0 0.0053063807078368398 0.0026955906508625569 0 0 0 0.0078199073426164049 0.027670134777116585 0.0049610068234712586 0 0.0049610068234712586 0.0051212101401840061 0 0 0 0.0081978362293251457 0.028196088939201881 0.0048298118310909953 0 0.0048298118310909953 0.0093976686992690208 0 0 0 0.0093984394096177266 0.029806062926693348 0.0027627370007344853 0 0.0027627370007344853 0.0043707550698493091 0 0 0 0.008544204499135663 0.031875178688249378 0.0011283681243517761 0 0.0011283681243517761 0.010618827920693203 0 0 0 0.010623501652235646 0.02929626514773433 0.00014731312844283562 0 0.00014731312844283562 0.0033592433738583354 0 0 0 0.0081638771303981679 0.033821654148304264 0.00010054535156618107 0 0.00010054535156618107 0.0045473254782839173 0 0 0 0.0095922449066470471 0.033627750442562658 0.0018451170325716781 0 0.0018451170325716781 0.0032429336879516426 0 0 0 0.0092176710326285754 0.034446238460458023 0.0026954552152153102 0 0.0026954552152153102 0.0025103755864813787 0 0 0 0.0092391535117348506 0.032910419859499489 0.0011766163372290044 0 0.0011766163372290044 0.0013106717883070045 0 0 0 0.0085552729119516245 0.036505732281974297 0.0014119458866603263 0 0.0014119458866603263 0.0024919748947590799 0 0 0 0.0097494267941833478 0.034341971285122321 0.0024302093154872834 0 0.0024302093154872834 0.00055754998965785833 0 0 0 0.0087248803186950434 0.035148237981254209 -0.00013866196372671062 0 -0.00013866196372671062 -0.00095378278064682563 0 0 0 0.0085486138001518476 0.032325119620158022 -0.0036223466837110325 0 -0.0036223466837110325 -0.0017791122504890698 0 0 0 0.0076365018424172423 0.034033882738516964 -0.0013552284477342763 0 -0.0013552284477342763 0.0015779443287123364 0 0 0 0.0089029567668073295 0.032677416986005452 -0.0011541220016112925 0 -0.0011541220016112925 0.0020701553347801864 0 0 0 0.0086868930801964079 0.031331172885076752 -0.0013331852750587377 0 -0.0013331852750587377 0.010445449316792288 0 0 0 0.010444155550467262 0.030561904669605178 -0.0035837365616645171 0 -0.0035837365616645171 0.010179724721556465 0 0 0 0.010185407347790412 0.028565923268996044 -0.0032587162597632791 0 -0.0032587162597632791 0.0036747936535420707 0 0 0 0.0080601792306345295 0.025348743022827986 -0.0069232912862463485 0 -0.0069232912862463485 0.0084476296675242233 0 0 0 0.008449093172588051 0.030515780718272219 -0.0041442320955814432 0 -0.0041442320955814432 0.0031688506875993598 0 0 0 0.008421157851467893 0.024558256787471672 -0.0070937548210025982 0 -0.0070937548210025982 0.00073771095764358502 0 0 0 0.0063239919362788151 0.015607360743911185 -0.0099569481013313792 0 -0.0099569481013313792 0.0051979441135668004 0 0 0 0.005201326214369497 0.017246424359027276 -0.011518286400004778 0 -0.011518286400004778 -0.0015311383170918298 0 0 0 0.0039288215104838608 0.0079866420128046414 -0.014654158810909271 0 -0.014654158810909271 -0.0028445793514127668 0 0 0 0.0012855156653479687 0.016718688023217319 -0.011398218290243567 0 -0.011398218290243567 -0.0047442454583180721 0 0 0 0.0029936106412248118 0.019738274887471131 -0.0081858096113241081 0 -0.0081858096113241081 -0.0022945270062575233 0 0 0 0.0043609369703034081 0.02445495429334623 -0.0070446336656943692 0 -0.0070446336656943692 0.00016273614651615806 0 0 0 0.0061544226099655985 0.013113317351208058 -0.010144251249316189 0 -0.010144251249316189 -0.0016728334505634809 0 0 0 0.0028601209751611435 0.024480146378271731 -0.0074649344041469888 0 -0.0074649344041469888 -0.0022652816816027335 0 0 0 0.0055537161741672468 0.031648872184212778 -0.0045195973648728847 0 -0.0045195973648728847 -0.0033853028641917891 0 0 0 0.0070658923300052513 0.033108854867529083 -0.002349924928662572 0 -0.002349924928662572 -0.00013593133608539448 0 0 0 0.0082432308828609292 0.033998580366952379 -0.0030164094961477664 0 -0.0030164094961477664 -0.0011357412158690232 0 0 0 0.0082157097877708397 0.033706449932874437 -0.0028609093133294952 0 -0.0028609093133294952 -0.0021302877067339255 0 0 0 0.007894040556535132 0.040976742794298165 -0.00034370998799828148 0 -0.00034370998799828148 -0.00070453693100091825 0 0 0 0.010068051465824313 0.027711672549935056 -0.0077100813160026075 0 -0.0077100813160026075 -0.0042029229253456798 0 0 0 0.0058771874061473439 0.021282657515134952 -0.010735185948457841 0 -0.010735185948457841 -0.0037584919543696069 0 0 0 0.0043810413901913328 0.027189555328843543 -0.0070914909303924252 0 -0.0070914909303924252 -0.0037357852229802542 0 0 0 0.0058634425264658223 0.029411873401487279 -0.0043773599384886886 0 -0.0043773599384886886 -0.0014245649287987789 0 0 0 0.0069968271181721159 0.016740598580531604 -0.010044670176736849 0 -0.010044670176736849 -0.0046300597234634686 0 0 0 0.0030276347142670305 0.027768316482285813 -0.010723957142617398 0 -0.010723957142617398 -0.0040429565857563049 0 0 0 0.0059313399741323797 0.032819331249874878 -0.0074489337945406846 0 -0.0074489337945406846 -0.0010369177447082656 0 0 0 0.0079456033762916496 0.031352187821222552 -0.0062813043884278798 0 -0.0062813043884278798 -0.0006476066298625148 0 0 0 0.0076761452978400145 0.044416233411166461 -0.001774016942614978 0 -0.001774016942614978 0.0034199927569326656 0 0 0 0.011959056542024782 0.033237884860103102 -0.009143193171618616 0 -0.009143193171618616 0.0021516126097654346 0 0 0 0.008847374367467126 0.033056360950880909 -0.0090169181059758657 0 -0.0090169181059758657 0.0034348216206905452 0 0 0 0.0091227956428928531 0.038234378277008818 0.00021824199296880867 0 0.00021824199296880867 0.0017905705743564511 0 0 0 0.010006237212841312 0.039156873759684518 -0.0047608609695264301 0 -0.0047608609695264301 -0.00080647153524962957 0 0 0 0.009587600556108725 0.04444148554263519 0.00056219223644468923 0 0.00056219223644468923 0.0019923169638014892 0 0 0 0.011608450626609165 0.050861005837762728 0.0048004693561433491 0 0.0048004693561433491 0.0090405749436868708 0 0 0 0.014975395195362402 0.043646846158106219 0.0052751888453931436 0 0.0052751888453931436 0.0081714159377935421 0 0 0 0.012954565523974938 0.046095281188770196 0.0040572194726993405 0 0.0040572194726993405 0.010040841657850928 0 0 0 0.014034030711655271 0.041943147178643933 0.0027816675050248664 0 0.0027816675050248664 0.0030284811930695148 0 0 0 0.011242907092928363 0.041669240094966198 0.0060396229993047567 0 0.0060396229993047567 0.0067537389387271399 0 0 0 0.012105744758423343 0.043512038246492551 0.0078227444214168732 0 0.0078227444214168732 0.014430749463094611 0 0 0 0.014485696927396791 0.040286950169412736 0.0047810118542128219 0 0.0047810118542128219 0.0083461575830777474 0 0 0 0.012158276938122615 0.039480955807681864 0.0074605934927770368 0 0.0074605934927770368 0.013532308868903466 0 0 0 0.013253316169146333 0.035816472777627145 0.005553893128266844 0 0.005553893128266844 0.0069296993784518767 0 0 0 0.010686543039019766 0.035248825030640973 0.0047920879918412346 0 0.0047920879918412346 0.0069098524694502766 0 0 0 0.010539669375022813 0.037871766384573673 0.0035268254433576205 0 0.0035268254433576205 0.0033812137860181821 0 0 0 0.010313245042647967 0.039047184660949259 0.0046180435088442676 0 0.0046180435088442676 0.0038871612284569843 0 0 0 0.01073358647235156 0.034868667658695215 0.0032272055102321416 0 0.0032272055102321416 0.0015730294424369396 0 0 0 0.0091104242752830349 0.038323042497514413 0.0028909271713795631 0 0.0028909271713795631 0.0019725472691359803 0 0 0 0.010073897441662602 0.036008525723794822 0.0014057223292386525 0 0.0014057223292386525 0.00025350777588565611 0 0 0 0.0090655083749201209 0.037573303146618373 0.00090196049378642325 0 0.00090196049378642325 0.00055055224202404788 0 0 0 0.0095309638471606003 0.036896073586306741 -0.0019098932382772109 0 -0.0019098932382772109 -0.001044452311323575 0 0 0 0.0089629053187457973 0.03846347870816734 0.0025394223840645258 0 0.0025394223840645258 0.0024676554975714259 0 0 0 0.010232783551434687 0.040857638471732065 0.0026994695275973767 0 0.0026994695275973767 0.0013002806394495797 0 0 0 0.010539479777795411 -0.069746937049087632 -0.0041910251222087545 0 -0.0041910251222087545 -0.0025165906565537189 0 0 0 -0.018065881926410347 -0.049388797058218969 -0.01162999633133798 0 -0.01162999633133798 -0.0012418335773371619 0 0 0 -0.01265765765888904 -0.055427608775708903 -0.0054268026994475169 0 -0.0054268026994475169 -0.00019428863207542751 0 0 0 -0.013905474351946084 -0.048369829141386787 -0.0081790597701302554 0 -0.0081790597701302554 0.003902509212561067 0 0 0 -0.011116829982206432 -0.045373479666533184 -0.005158503021594007 0 -0.005158503021594007 0.00316642144143265 0 0 0 -0.010551764556275132 -0.046216691962555054 -0.0027891416311071316 0 -0.0027891416311071316 -0.0052805544857613441 0 0 0 -0.012874311612079099 -0.04234699940852505 -0.0037138749744898441 0 -0.0037138749744898441 -0.014087296240309993 0 0 0 -0.014108573912208761 -0.041994914241772152 -0.0057356748868561472 0 -0.0057356748868561472 -0.0061762148842946438 0 0 0 -0.012042782281516697 -0.040798346637314603 -0.010444415622678985 0 -0.010444415622678985 -0.0039059363531398356 0 0 0 -0.01117607074761361 -0.036050926988286998 -0.010716894791079344 0 -0.010716894791079344 -0.0023179492457625715 0 0 0 -0.0095922190585123936 -0.031151467016049685 -0.010848646713225343 0 -0.010848646713225343 -0.010390821701417871 0 0 0 -0.010385572179366889 -0.031143802596616563 -0.010853095794907596 0 -0.010853095794907596 -0.010366627864212271 0 0 0 -0.010377607615207209 -0.034664322941507772 -0.012918594417806708 0 -0.012918594417806708 -0.0040158519370079304 0 0 0 -0.0096700437196289273 -0.02338735586288871 -0.013172902349124053 0 -0.013172902349124053 -0.0011371422630801625 0 0 0 -0.0061311245314922165 -0.038990798541758492 -0.01205762311833878 0 -0.01205762311833878 0.00095423468426428237 0 0 0 -0.009509140964373549 -0.055592956554858547 -0.011847248564160496 0 -0.011847248564160496 -0.0015456672661719913 0 0 0 -0.014284655955257628 -0.022169005028730884 -0.01584731780153276 0 -0.01584731780153276 -0.00021500341054602606 0 0 0 -0.0055960021098192311 -0.041162796130416908 -0.014314919393240512 0 -0.014314919393240512 -0.0032236272028235285 0 0 0 -0.011096605833310104 -0.019325631704956592 -0.013084363758339749 0 -0.013084363758339749 -0.0024794457550419173 0 0 0 -0.0054512693649996329 -0.015300296118452371 -0.013539531413116682 0 -0.013539531413116682 -0.0044614799526955032 0 0 0 -0.0049404440177869685 -0.019520728450286413 -0.016850493121318255 0 -0.016850493121318255 -0.0030496883427256691 0 0 0 -0.0056426041982530198 -0.017649596840368736 -0.015662622722032761 0 -0.015662622722032761 -0.001758362246797443 0 0 0 -0.0048519897717915431 -0.018911078385170754 -0.014916158312120472 0 -0.014916158312120472 -0.0051301806043104522 0 0 0 -0.0060103147473703012 -0.0078069452420821313 -0.012797919010083685 0 -0.012797919010083685 -0.0026103660576287883 0 0 0 -0.0026043278249277299 -0.0069934606642583878 -0.015336602387729603 0 -0.015336602387729603 -0.0040764175947628628 0 0 0 -0.0027674695647553135 -0.0031026230632050073 -0.011965167416387519 0 -0.011965167416387519 -0.0013468600143127047 0 0 0 -0.0011123707693794292 -0.0036808329680494255 -0.016491884580560466 0 -0.016491884580560466 -0.0031145446719154507 0 0 0 -0.0016988444099912212 0.0043666413835457369 -0.012077828323229924 0 -0.012077828323229924 0.0014571702419029803 0 0 0 0.0014559529063621793 0.011340063808758375 -0.009848757701848029 0 -0.009848757701848029 -0.00026284095789755497 0 0 0 0.0027693057127152047 0.0050270762077033078 -0.015438505371425238 0 -0.015438505371425238 -0.0041775043137626325 0 0 0 0.00021239297348516969 0.000639347869836146 -0.014767828245886277 0 -0.014767828245886277 -0.004278495276267745 0 0 0 -0.00090978685160790149 0.0014161814227132588 -0.011705737644804507 0 -0.011705737644804507 -0.0034588951257088617 0 0 0 -0.00051067842574890237 0.011307775840982429 -0.014513415036385278 0 -0.014513415036385278 -0.006563723920523637 0 0 0 0.0011860129801146979 0.017350583859307867 -0.011060406280187302 0 -0.011060406280187302 -0.003481611060942664 0 0 0 0.003467243199591301 0.0020293102099173503 -0.016610569979616012 0 -0.016610569979616012 -0.0055675253701329003 0 0 0 -0.00088455379005389009 0.017192730650674653 -0.013632141549962113 0 -0.013632141549962113 -0.0030439252422803827 0 0 0 0.0035372013520985693 0.0040493906433976372 -0.013088351921832671 0 -0.013088351921832671 0.0021542490132205059 0 0 0 0.0015509099141545366 -0.0023498184515531604 -0.018386509149588181 0 -0.018386509149588181 -0.0022166555567737015 0 0 0 -0.0011416185020817144 0.015411162598840348 -0.011936890231718459 0 -0.011936890231718459 -0.00015196455619128496 0 0 0 0.0038147995106622666 -0.0021099176683901551 -0.016700691721202962 0 -0.016700691721202962 -0.0010036809466323175 0 0 0 -0.00077839965375561815 0.0016088268071710078 -0.019591398659712191 0 -0.019591398659712191 0.0019530137977501949 0 0 0 0.00089046015123030176 -0.021875552291652622 -0.016357842037134862 0 -0.016357842037134862 -0.0034631434084660545 0 0 0 -0.0063346739250296734 -0.020610363074691013 -0.01847210732914753 0 -0.01847210732914753 -0.0024164068028908713 0 0 0 -0.0057566924693954712 -0.022257492229078118 -0.015035083484353234 0 -0.015035083484353234 -0.00053208057935145991 0 0 0 -0.0056973932021073884 -0.0015042828031012756 -0.014372591894902826 0 -0.014372591894902826 -0.0012421113545559095 0 0 0 -0.00068659853941429455 -0.013713869431802734 -0.016803553010301699 0 -0.016803553010301699 -0.0044625144663349645 0 0 0 -0.0045440959745344234 -0.036617289869418639 -0.015580862360642479 0 -0.015580862360642479 -0.0023286581236140122 0 0 0 -0.0097364869982581523 -0.034887489436733497 -0.014644240124346303 0 -0.014644240124346303 0.0017751311123177307 0 0 0 -0.0082780895811039468 -0.048132657416715158 -0.012836552028738459 0 -0.012836552028738459 0.0011561364516358072 0 0 0 -0.011744130241269846 -0.036598753840135015 -0.019748649438657954 0 -0.019748649438657954 0.0012807440240529544 0 0 0 -0.0088295024540205099 -0.044636595687941011 -0.013856659709780617 0 -0.013856659709780617 -0.0018944355528347952 0 0 0 -0.011632757810193951 -0.024161752807567452 -0.021676167806011493 0 -0.021676167806011493 0.0019567652329918637 0 0 0 -0.0055512468936438943 -0.045140412805899026 -0.017225139538640695 0 -0.017225139538640695 0.0035742322880393165 0 0 0 -0.010391545129464936 -0.071790335763353114 -0.011602477395980453 0 -0.011602477395980453 -0.0022438621334858744 0 0 0 -0.018508549474209761 -0.075359212043673615 -0.012910092706043822 0 -0.012910092706043822 0.00095111573010075307 0 0 0 -0.01860202407839321 -0.096250705559275368 -0.0078429596884233461 0 -0.0078429596884233461 0.0010457883275524632 0 0 0 -0.023801229307930733 -0.068623751940261019 -0.00634985848012259 0 -0.00634985848012259 0.0012968840739168448 0 0 0 -0.016831716966586047 -0.08278925912376138 -0.0075000022720423032 0 -0.0075000022720423032 7.2978182598085542e-05 0 0 0 -0.020679070235290833 -0.050428749929125896 -0.01475586837303584 0 -0.01475586837303584 0.00010086704377640539 0 0 0 -0.01258197072133737 -0.06835358317678418 -0.0053543077661103618 0 -0.0053543077661103618 -0.0029707339956400814 0 0 0 -0.01783107929310606 -0.052848746023182777 -0.010139750600832944 0 -0.010139750600832944 0.002934477330639714 0 0 0 -0.012478567173135766 -0.092664262984714724 -0.0058821034032124908 0 -0.0058821034032124908 0.0086019197210094045 0 0 0 -0.021015585815926323 -0.13607865561551052 0.0011962206644306195 0 0.0011962206644306195 0.0051017538994057587 0 0 0 -0.032744225429026177 -0.087048697237172831 -0.013347614365986898 0 -0.013347614365986898 0.0095196876986551326 0 0 0 -0.019382252384629442 -0.080876932568270832 -0.00027315062129368295 0 -0.00027315062129368295 0.008237406996936654 0 0 0 -0.018159881392833557 -0.1218231102555356 -0.0046725036675824283 0 -0.0046725036675824283 0.0054401194294227823 0 0 0 -0.029095747706528192 -0.10749859371380346 -0.006731408061846837 0 -0.006731408061846837 0.0022406876689313737 0 0 0 -0.026314476511218033 -0.072856241149195727 -0.0076477787924163557 0 -0.0076477787924163557 0.0031938299088305755 0 0 0 -0.017415602810091295 -0.081102043626061424 -0.0058912868494387163 0 -0.0058912868494387163 0.0041010231473429318 0 0 0 -0.019250255119679642 -0.077651489635550824 -0.015307565007756633 0 -0.015307565007756633 0.0069640622585231404 0 0 0 -0.017671856844256911 -0.044592762206014984 -0.015393514727233708 0 -0.015393514727233708 0.007445192914005222 0 0 0 -0.0092868923230024283 -0.046505810081771182 -0.016247307915868731 0 -0.016247307915868731 0.0023549561036541669 0 0 0 -0.011037713494529242 -0.03018552454653008 -0.015022000673618505 0 -0.015022000673618505 -0.0018363043810005449 0 0 0 -0.0080054572318826629 -0.042470438896580386 -0.020386891655968978 0 -0.020386891655968978 0.013304688962318456 0 0 0 -0.0072914374835655049 -0.056972225715401559 -0.0085708556724008178 0 -0.0085708556724008178 0.0065573323527148564 0 0 0 -0.0126037233406717 -0.042995954494426072 -0.0034118102626419511 0 -0.0034118102626419511 0.014438374513186769 0 0 0 -0.0071393949953098114 -0.0038286358997002903 -0.014408155690414648 0 -0.014408155690414648 0.018091178255504825 0 0 0 0.0035656355889511424 0.0020315190058199373 -0.010954150615319347 0 -0.010954150615319347 0.034295915858382042 0 0 0 0.0090818587160504949 0.016945620892133591 -0.019240238628497899 0 -0.019240238628497899 0.015623892019018176 0 0 0 0.0081423782277879539 -0.03226187092622488 -0.011680794412900278 0 -0.011680794412900278 0.01699701968024564 0 0 0 -0.0038162128114948082 -0.01118484123118584 -0.019090305927763441 0 -0.019090305927763441 0.0099187931961309157 0 0 0 -0.00031651200876372902 -0.03346628591634393 -0.021506341484423951 0 -0.021506341484423951 0.0067024795453281133 0 0 0 -0.0066909515927539506 -0.014585155962182624 -0.0230145426254958 0 -0.0230145426254958 0.0020967341769352124 0 0 0 -0.0031221054463118521 -0.010013080116819456 -0.01599040326975075 0 -0.01599040326975075 0.0059523848258978508 0 0 0 -0.0010151738227304028 0.0088976747683029468 -0.020499781128870152 0 -0.020499781128870152 0.0073241299767490414 0 0 0 0.0040554511862629962 -0.0094584352287311498 -0.014657561303845788 0 -0.014657561303845788 0.012485528802279849 0 0 0 0.00075677339338717231 0.010620907963271508 -0.013238157995705893 0 -0.013238157995705893 0.0088384531006969191 0 0 0 0.0048648402659921073 0.031639272651357533 -0.017463829294882098 0 -0.017463829294882098 0.010615381678488953 0 0 0 0.010563663582461625 0.020680042408054357 -0.017599421706916706 0 -0.017599421706916706 0.0037038655929761237 0 0 0 0.006095977000257621 0.039769131499012317 -0.013537951574343551 0 -0.013537951574343551 0.0073914444881636177 0 0 0 0.011790143996793985 0.021480110457121587 -0.010798350102438884 0 -0.010798350102438884 0.0043675014717063886 0 0 0 0.0064619029822069931 0.033596397650811474 -0.0082928601413860617 0 -0.0082928601413860617 0.01597656720155359 0 0 0 0.01239324121309127 0.05470637982164097 -0.014384473265952338 0 -0.014384473265952338 0.021694959528566135 0 0 0 0.019100334837551775 0.020114208088396951 -0.011591888799075592 0 -0.011591888799075592 0.023765041989262853 0 0 0 0.010969812519414951 0.047133957738615312 -0.01624553078022678 0 -0.01624553078022678 0.027633749120960671 0 0 0 0.018691926714893989 0.047151605904070346 -0.0057729868914852232 0 -0.0057729868914852232 0.037060920884560783 0 0 0 0.021053131697157765 0.075279224021383165 -0.00037662117591230615 0 -0.00037662117591230615 0.065139448281778922 0 0 0 0.035104668075790532 0.079474304541523627 -0.015006050564686707 0 -0.015006050564686707 0.051499981020809604 0 0 0 0.032743571390583315 0.035131031774829444 -0.0060573101398378668 0 -0.0060573101398378668 0.043985621461114177 0 0 0 0.019779163308985909 0.020964104267919857 -0.019622031738079138 0 -0.019622031738079138 0.045520926870254108 0 0 0 0.016621257784543493 0.06013896701842214 -0.020506971139709992 0 -0.020506971139709992 0.086687493912146418 0 0 0 0.036706615232642126 0.085299938370405282 -0.011376761906051816 0 -0.011376761906051816 0.14962139426889653 0 0 0 0.058730333159825454 0.089756409515795998 0.020707788474006256 0 0.020707788474006256 0.13226966493162434 0 0 0 0.055506518611855092 0.079328822094607843 0.017962167501104624 0 0.017962167501104624 0.15855008078093324 0 0 0 0.059469725718885313 0.063412675807799468 0.015989298268018315 0 0.015989298268018315 0.10725694118979456 0 0 0 0.042667404249398522 0.039570819038356297 -0.0055251688737660287 0 -0.0055251688737660287 0.082014787276704304 0 0 0 0.030396401578765136 0.054854221751166644 0.0053499839098492541 0 0.0053499839098492541 0.086216700432832055 0 0 0 0.035267730545999638 0.028039745066003374 0.028307377495677355 0 0.028307377495677355 0.092488952715308298 0 0 0 0.030132174445327925 0.0087250188679609542 0.016112765416378155 0 0.016112765416378155 0.05712813399941985 0 0 0 0.016463288216845173 -0.011836264577576125 0.022545105869929027 0 0.022545105869929027 0.064570337152185464 0 0 0 0.013183518143652331 -0.002215670374573403 -0.0021103650609951407 0 -0.0021103650609951407 0.035443324311815405 0 0 0 0.0083069134843105075 -0.024683390342813256 0.0050017129787895132 0 0.0050017129787895132 0.033998015751397964 0 0 0 0.0023286563521461787 0.010783518505841722 0.00096350373186064597 0 0.00096350373186064597 0.075274522647973685 0 0 0 0.021514510288453859 -0.026370638794943418 -0.014484538484186127 0 -0.014484538484186127 0.035616989986963776 0 0 0 0.0023115877980050825 -0.057887154282005138 -0.012263866217549921 0 -0.012263866217549921 0.01757603533490576 0 0 0 -0.010077779736774845 -0.058536654870348759 0.0042855032287639344 0 0.0042855032287639344 0.018527483411249546 0 0 0 -0.010002292864774803 -0.037290437104608415 -0.0070574433823339666 0 -0.0070574433823339666 0.030318236926187181 0 0 0 -0.0017430500446052877 -0.047981051223004084 0.016780462554271958 0 0.016780462554271958 0.032126104200087213 0 0 0 -0.0039637367557292524 -0.025508690132123285 0.012870139802952041 0 0.012870139802952041 0.025950832321589901 0 0 0 0.00011053554736664695 -0.061156442761095248 0.022866383493558684 0 0.022866383493558684 0.020273068211085571 0 0 0 -0.010220843637502447 -0.047829904282590263 0.015056597985519088 0 0.015056597985519088 0.038782009726557654 0 0 0 -0.0022619736390082079 -0.057047732049359534 0.0044927215496231646 0 0.0044927215496231646 0.018385117767077408 0 0 0 -0.0096656535705705315 -0.084196947700241886 0.011201256500468604 0 0.011201256500468604 0.018245953770910983 0 0 0 -0.016487748482332781 -0.077959113385893647 0.0042357839129790742 0 0.0042357839129790742 0.013366784439118207 0 0 0 -0.016148082236693867 -0.12608776071555405 0.0058895937721253344 0 0.0058895937721253344 0.014670685389433835 0 0 0 -0.027854268831529999 -0.092713405302606855 0.00014270140452271596 0 0.00014270140452271596 0.010395093320283433 0 0 0 -0.020579577995580883 -0.13936958185015991 -0.0017191204561052553 0 -0.0017191204561052553 0.010596976718680706 0 0 0 -0.0321931512828698 -0.098618923216595683 0.0043443473097307533 0 0.0043443473097307533 0.0072813098234424389 0 0 0 -0.02283440334828829 -0.078109342419119071 -0.0072094227749092965 0 -0.0072094227749092965 0.013523532487946396 0 0 0 -0.016146452482793196 -0.099276700365246245 -0.010282846655489314 0 -0.010282846655489314 0.0095481345362128378 0 0 0 -0.022432141457258331 0.053113456625409672 0.014723612389960831 0 0.014723612389960831 0.036834861920262078 0 0 0 0.022487079636417925 0.057126513997664899 0.016501211513439924 0 0.016501211513439924 0.047031806835113474 0 0 0 0.02603958020819459 0.062840064401564602 0.01733445277905829 0 0.01733445277905829 0.048876614034407337 0 0 0 0.027929169608993012 0.048005705653657291 0.012968258042701662 0 0.012968258042701662 0.052658806594974912 0 0 0 0.025166128062158045 0.037426044260933447 0.0077041781456407528 0 0.0077041781456407528 0.053261609380233714 0 0 0 0.022671913410291802 0.040970786185432248 0.0094825366814772633 0 0.0094825366814772633 0.03611414043850792 0 0 0 0.019271231655985051 0.030653622970052859 0.0042944050341722165 0 0.0042944050341722165 0.036793455263842589 0 0 0 0.01686176955847386 0.045091471752216825 0.011916615737128003 0 0.011916615737128003 0.037577362971360474 0 0 0 0.02066720868089434 0.03676644899997307 0.0064621763409995021 0 0.0064621763409995021 0.023518334891301333 0 0 0 0.015071195972818602 0.036587103418671774 0.0077014519210310307 0 0.0077014519210310307 0.029893538882647355 0 0 0 0.016620160575329793 0.035990468713077456 0.0051783938115518083 0 0.0051783938115518083 0.013862285639499559 0 0 0 0.012463188588144252 0.041454044095299188 0.0095940712251423015 0 0.0095940712251423015 0.023836190068917289 0 0 0 0.016322558541054112 0.043223563504305146 0.0074364045672235561 0 0.0074364045672235561 0.01465826018973107 0 0 0 0.014470455923509054 0.044486049175622586 0.009191631399078656 0 0.009191631399078656 0.028704085869656462 0 0 0 0.018297533761319758 0.049445759339716233 0.012143526112319378 0 0.012143526112319378 0.024823886060066917 0 0 0 0.018567411349945776 0.05151470674205328 0.0071107700558521447 0 0.0071107700558521447 0.015837342392067362 0 0 0 0.016838012283530174 0.045703678075056729 0.006599365718660476 0 0.006599365718660476 0.014454755894386339 0 0 0 0.015039608492360768 0.04395495458887818 -0.0020043118865964542 0 -0.0020043118865964542 0.0068265189192532015 0 0 0 0.012695368377032841 0.057012757146657808 0.0019411550362867652 0 0.0019411550362867652 0.020066280356709917 0 0 0 0.019269759375841935 0.053794367591920515 0.0045576193340860979 0 0.0045576193340860979 0.014418500133825188 0 0 0 0.017053216931436431 0.056603139276533362 0.011732459693164408 0 0.011732459693164408 0.027443280964648015 0 0 0 0.021011605060295334 0.041606303067482829 -0.0039743260343238843 0 -0.0039743260343238843 0.008663844147700217 0 0 0 0.012567536803795763 0.051310780760042002 -0.0074126992885454046 0 -0.0074126992885454046 0.013234983946924447 0 0 0 0.016136441176741626 0.058434401852764967 0.001303742357197317 0 0.001303742357197317 0.023729477547314831 0 0 0 0.020540969850019949 0.068486904656454795 -0.0040597130768587758 0 -0.0040597130768587758 0.035353784476400169 0 0 0 0.025960172283213758 0.083606457018550517 0.0090440519533850627 0 0.0090440519533850627 0.048764165605419005 0 0 0 0.03309265565599237 0.065785149053357445 0.011688801077201598 0 0.011688801077201598 0.030303417638439509 0 0 0 0.024022141672949242 0.07474627478436649 0.01021666805978561 0 0.01021666805978561 0.030023942523475164 0 0 0 0.026192554326960417 0.067007289748778051 0.012441839280929845 0 0.012441839280929845 0.043296076326152719 0 0 0 0.027575841518732699 0.086948385424044372 0.014922316708631367 0 0.014922316708631367 0.048590047028493712 0 0 0 0.033884608113134547 0.075863814685000031 0.024249297978765808 0 0.024249297978765808 0.077411932171033315 0 0 0 0.038318936714008371 0.11283170285904004 0.028676384338155593 0 0.028676384338155593 0.077574963682179865 0 0 0 0.047601666635304983 0.098247497241699816 0.025638739377186449 0 0.025638739377186449 0.11234044263358431 0 0 0 0.052646984968821031 0.076707020355183245 0.027153028029812405 0 0.027153028029812405 0.11164470566072394 0 0 0 0.04708793150397679 0.087072521259154018 0.021865504216937871 0 0.021865504216937871 0.081209469072410362 0 0 0 0.042070497582891102 0.11112446259664818 -0.0030895641685631942 0 -0.0030895641685631942 0.070821504468966623 0 0 0 0.045486491766403701 0.11875330419286448 0.01144572040712423 0 0.01144572040712423 0.10242744796495018 0 0 0 0.055295188039453658 0.1228844539749593 -0.016041492255556289 0 -0.016041492255556289 0.091378586642519188 0 0 0 0.05356576015436966 0.2125586053736187 -0.01014537177539461 0 -0.01014537177539461 0.14293744354554794 0 0 0 0.088874012229791688 0.14782424522712062 -0.0044805108900486945 0 -0.0044805108900486945 0.2807166410854684 0 0 0 0.10713522157814727 0.20130366859135612 0.080602119562019056 0 0.080602119562019056 0.20656991276722317 0 0 0 0.1019683953396448 0.10851996093008631 0.045462440192874799 0 0.045462440192874799 0.17753789857284152 0 0 0 0.071514464875731959 0.059411629426575269 0.016686561513897864 0 0.016686561513897864 0.1082164189268941 0 0 0 0.041907012088367335 0.10522215278845246 0.029344424144432002 0 0.029344424144432002 0.11578304566527747 0 0 0 0.055251299613432475 0.065292033481140571 -0.019199587856840328 0 -0.019199587856840328 0.19937533512597358 0 0 0 0.06616684215177851 0.050702256548208632 -0.020635967732340794 0 -0.020635967732340794 0.11556586087968021 0 0 0 0.041567029356972193 0.051058969022934352 -0.020998934452373094 0 -0.020998934452373094 0.12153321497139373 0 0 0 0.043148045998582012 0.061858588553254414 0.015910026436197683 0 0.015910026436197683 0.1150782251204671 0 0 0 0.04423420341843038 0.056538318398359148 0.015313195437590979 0 0.015313195437590979 0.071986389373086712 0 0 0 0.032131176942861467 0.052606677933458829 0.010471863368046199 0 0.010471863368046199 0.10322603051523356 0 0 0 0.038958177112173101 0.038057772424055419 0.0021411886521323551 0 0.0021411886521323551 0.069051936712420506 0 0 0 0.026777427284118985 0.045488572575238154 0.010386672267890839 0 0.010386672267890839 0.080195158638457678 0 0 0 0.031420932803423958 0.046459516646376632 0.012354456042595656 0 0.012354456042595656 0.051687492639744113 0 0 0 0.024536752321530193 0.058042981096366242 0.019508842532687476 0 0.019508842532687476 0.075979770359307475 0 0 0 0.033505687863918429 0.032746073014455993 0.0041631269038798716 0 0.0041631269038798716 0.049842916521663685 0 0 0 0.02064724738402994 0.034000495403207154 0.0026053988208206138 0 0.0026053988208206138 0.064624320743617583 0 0 0 0.024656204036706188 0.044452130691916822 -0.020027519194611917 0 -0.020027519194611917 0.07529333871441074 0 0 0 0.02993636735158188 0.031455646849965331 -0.0079509356773516567 0 -0.0079509356773516567 0.063105970392357325 0 0 0 0.023640404310580669 0.028900061407434792 -0.0064147183653905371 0 -0.0064147183653905371 0.05878960890238627 0 0 0 0.021922417577455271 0.040453083472173065 -0.00088249699110675914 0 -0.00088249699110675914 0.086676134013146292 0 0 0 0.031782304371329832 0.038949622234269114 -0.017495209070603389 0 -0.017495209070603389 0.055707724211291429 0 0 0 0.023664336611390134 0.036630581527433273 -0.017919157103181965 0 -0.017919157103181965 0.046251466346972636 0 0 0 0.020720511968601481 0.054989279575865274 -0.027262493746951694 0 -0.027262493746951694 0.051866827903625082 0 0 0 0.026714026869872568 0.049048517802850286 -0.025844064281721819 0 -0.025844064281721819 0.029565401838921812 0 0 0 0.019653479910443042 0.040322599437063802 -0.017574912772699784 0 -0.017574912772699784 0.023628183098158895 0 0 0 0.015987695633805657 0.055820179688742769 -0.022194693647023964 0 -0.022194693647023964 0.028239986194620016 0 0 0 0.021015041470840694 0.057180124521136619 -0.021870669384987447 0 -0.021870669384987447 0.032336399070734989 0 0 0 0.022379130897967933 0.048405426800634907 -0.016350811259516984 0 -0.016350811259516984 0.010947448125663339 0 0 0 0.014838218731574551 0.070201399355655614 -0.011279262416393432 0 -0.011279262416393432 0.022113731866808761 0 0 0 0.023078782805616094 0.064101289330197042 -0.015642422058065986 0 -0.015642422058065986 0.011103940558625458 0 0 0 0.018801307472205653 0.069118920271741213 -0.020617809369794904 0 -0.020617809369794904 0.017183292026284047 0 0 0 0.021575553074506287 0.086450588206939627 -0.038712281664448164 0 -0.038712281664448164 0.048761966766797921 0 0 0 0.033803138743434373 0.043756929618937276 -0.020717008302962081 0 -0.020717008302962081 0.075590323762251124 0 0 0 0.029836813345297086 0.060208922253164529 -0.031956818345450083 0 -0.031956818345450083 0.057511437077143596 0 0 0 0.029430089832577042 0.06040988040910103 -0.034900733432205094 0 -0.034900733432205094 0.066408511639674511 0 0 0 0.031704598012193885 0.065580247236293132 -0.043130001896974898 0 -0.043130001896974898 0.10259966661172459 0 0 0 0.042044978462004411 0.046410527051751672 -0.039340114821383644 0 -0.039340114821383644 0.13483815664893523 0 0 0 0.045312170925171709 0.076562792850070976 -0.036805189651433784 0 -0.036805189651433784 0.13151715716080351 0 0 0 0.052019987502718634 0.10160247227012327 -0.011987586735120365 0 -0.011987586735120365 0.34211351921934219 0 0 0 0.11092899787236636 0.080723728321706878 -0.015000847861342426 0 -0.015000847861342426 -0.0087765899425495675 0 0 0 0.017986784594789355 0.1093564410306188 -0.059671930590617289 0 -0.059671930590617289 0.083799618815797478 0 0 0 0.048289014961604051 0.181344043159406 0.11390510023381181 0 0.11390510023381181 0.23592276166694603 0 0 0 0.10431670120658806 0.10737637444867329 -0.085558821188802606 0 -0.085558821188802606 0.15015262889136638 0 0 0 0.064382250835009924 0.0063549198760133327 0.0010129712749153861 0 0.0010129712749153861 0.017194050802578971 0 0 0 0.0058872426696480757 0.28030024384155999 0.10275434019612935 0 0.10275434019612935 0.07183085284230617 0 0 0 0.088032774170966555 0.15141946238527615 0.029189339773487255 0 0.029189339773487255 0.04509744628998269 0 0 0 0.049129227168814626 0.014374152711571105 0.0024521925612382206 0 0.0024521925612382206 0.043343222362251764 0 0 0 0.014429343768455716 0.019694126075830709 0.0021942839318812302 0 0.0021942839318812302 0.045812554885099721 0 0 0 0.016376670240232594 0.13315937623752705 0.0232398113893999 0 0.0232398113893999 0.041480203628847967 0 0 0 0.043659894966593664 0.020200812671076651 0.003394210816775366 0 0.003394210816775366 0.060355861407383894 0 0 0 0.020139168519615135 0.026534650986791863 0.0080701543744000348 0 0.0080701543744000348 0.052083173543157946 0 0 0 0.01965445613248748 0.10668205289776117 0.017971589552291223 0 0.017971589552291223 0.028501921097013883 0 0 0 0.033795993498693833 0.071743490817219494 -0.020464691036816196 0 -0.020464691036816196 0.0053457685048662884 0 0 0 0.019272314830521456 0.060467002987496798 0.0043349201054312669 0 0.0043349201054312669 0.03049074919305711 0 0 0 0.022739438045138505 0.062797071880676486 -0.0082515130685278312 0 -0.0082515130685278312 0.031873113774209538 0 0 0 0.023667546413721513 0.067321921811777888 -0.0024336468007273016 0 -0.0024336468007273016 0.019675913063652684 0 0 0 0.021749458718857598 0.051649739985763152 0.0068822609888364861 0 0.0068822609888364861 0.029359311503253577 0 0 0 0.020252262872254193 0.05682466751452625 0.0044540310224523427 0 0.0044540310224523427 0.049753156351162175 0 0 0 0.026644455966422176 0.044328513632558561 0.0093271005259314976 0 0.0093271005259314976 0.060143759520104145 0 0 0 0.026118068288165666 0.064279602230153887 0.0020205266733868132 0 0.0020205266733868132 0.029491349531811983 0 0 0 0.023442737940491509 0.097227192748997937 0.016644155631130322 0 0.016644155631130322 0.035944544245948951 0 0 0 0.033292934248736694 0.10278125440666663 0.011073454828438578 0 0.011073454828438578 0.055759124679588545 0 0 0 0.039635094771563906 0.10904883708128776 0.010037608382176377 0 0.010037608382176377 0.054651810383327781 0 0 0 0.040925161866153692 0.024939494384839781 0.0040199387491689654 0 0.0040199387491689654 0.074699169853226444 0 0 0 0.024909666059516552 0.095552261464687649 0.0072907128701512613 0 0.0072907128701512613 0.059456272457663495 0 0 0 0.038752133480588036 0.098521972163634119 0.0083840201514799872 0 0.0083840201514799872 0.060443813530861146 0 0 0 0.039741446423623761 0.088116929059156357 0.012432381674948756 0 0.012432381674948756 0.058886182537873477 0 0 0 0.036750777899257514 0.09373827259294254 0.0055757666968755601 0 0.0055757666968755601 0.071463837212251136 0 0 0 0.04130052745129853 0.057501679298864627 0.0098694762248480849 0 0.0098694762248480849 0.076256144352694899 0 0 0 0.033439455912889882 0.02940604289112261 0.0044428324760679271 0 0.0044428324760679271 0.08806309567971296 0 0 0 0.029367284642708893 0.09122307835309662 0.0063025335193276355 0 0.0063025335193276355 0.072952688947907074 0 0 0 0.041043941825250951 0.056203895468082882 0.008791138856248687 0 0.008791138856248687 0.045793219923615514 0 0 0 0.025499278847924634 0.058293472397473928 0.0082314553730005735 0 0.0082314553730005735 0.027509940894778873 0 0 0 0.021450853323063124 0.062835440598946996 0.0066351472939837342 0 0.0066351472939837342 0.064196948531859033 0 0 0 0.031758097282701486 0.064620215665198044 0.0085575335937346786 0 0.0085575335937346786 0.048124424028687635 0 0 0 0.028186159923471399 0.064260117024122695 0.012085819596812958 0 0.012085819596812958 0.054372377705995178 0 0 0 0.0296581236825295 0.05783603103607407 0.0098463815742841007 0 0.0098463815742841007 0.024989973710710545 0 0 0 0.020706501186696202 0.058507620823180298 0.0087412218468441716 0 0.0087412218468441716 0.027307294752506706 0 0 0 0.021453728893921803 0.060661701669940074 0.0060058603948799916 0 0.0060058603948799916 0.025106367517108097 0 0 0 0.021442017296761994 0.05773116248741092 0.00025062180559065617 0 0.00025062180559065617 0.0080984860566365446 0 0 0 0.016457412136011845 0.05786008598847972 0.0030615635269944097 0 0.0030615635269944097 0.011855246189298341 0 0 0 0.017428833044444508 0.051186313676828785 0.0044181502700504915 0 0.0044181502700504915 0.0079624839283685307 0 0 0 0.014787199401299314 0.054220954541045446 0.0022116224292750841 0 0.0022116224292750841 0.0117088008228734 0 0 0 0.016482438840979691 0.052187832763313152 -0.0043190143117560476 0 -0.0043190143117560476 0.0065016785689243628 0 0 0 0.014672377833059386 0.056413739126844109 -0.00014366308358468305 0 -0.00014366308358468305 0.010288057118623045 0 0 0 0.016675449061366782 0.05966892924775033 -0.0075367399283932934 0 -0.0075367399283932934 0.0074761138683312467 0 0 0 0.016786260779020429 0.05059681575790656 -0.0077928394228715114 0 -0.0077928394228715114 0.0027289215200144157 0 0 0 0.013331434319480251 0.058807164561045761 -0.012012728687267542 0 -0.012012728687267542 0.010231570268316559 0 0 0 0.017259683707340573 0.050215315023617577 -0.01296936830919504 0 -0.01296936830919504 0.010760993829608705 0 0 0 0.015244077213306544 0.058869550049084812 -0.0071034770625865995 0 -0.0071034770625865995 0.0071501342225296638 0 0 0 0.016504921067903577 0.059519277527166639 6.5437578359195392e-05 0 6.5437578359195392e-05 0.010820809362997202 0 0 0 0.017585021722541019 0.064692623637475605 -0.0035770632281677261 0 -0.0035770632281677261 0.01501907714960804 0 0 0 0.01992792519677089 -0.049608600968259364 0.010115864922114026 0 0.010115864922114026 0.011332162214721442 0 0 0 -0.0095691096883844251 -0.056816040812550872 0.011335696008600959 0 0.011335696008600959 0.011708803154583558 0 0 0 -0.011276809414491884 -0.034892028860778246 0.029182929065029478 0 0.029182929065029478 0.021474898562415135 0 0 0 -0.0033542825745908056 -0.089363936301681268 0.013386948206102312 0 0.013386948206102312 0.011835887907011511 0 0 0 -0.019382012098667523 -0.10128040856671855 0.011415131569423809 0 0.011415131569423809 0.015569112145655595 0 0 0 -0.021427824105265669 -0.054425878041675424 0.015663050533112427 0 0.015663050533112427 0.012093204221158782 0 0 0 -0.010583168455129299 -0.054583700903470755 0.016052463845840914 0 0.016052463845840914 0.013909396241771788 0 0 0 -0.010168576165424825 -0.033497550713925794 0.034171969657890711 0 0.034171969657890711 0.026367750412328528 0 0 0 -0.0017824500753993444 -0.012705460185586576 0.035816158604074833 0 0.035816158604074833 0.029682149554562609 0 0 0 0.0042441723422440292 0.0052727759182994438 0.042886831354485705 0 0.042886831354485705 0.045564941893397215 0 0 0 0.012709429452924192 -0.010490278840825651 0.030098840545741384 0 0.030098840545741384 0.018061765989664913 0 0 0 0.001892871787209871 -0.00046040160123131391 0.041309001744492035 0 0.041309001744492035 0.026111938259458956 0 0 0 0.006412884164556959 -0.023465185344870743 0.024954606704519156 0 0.024954606704519156 0.012177400270205752 0 0 0 -0.0028219462686661645 0.007144311555536631 0.035577494818391953 0 0.035577494818391953 0.016111661185784332 0 0 0 0.0058139931853302684 0.062131905670985171 0.047701845410533128 0 0.047701845410533128 0.033098133341527225 0 0 0 0.023807509753128203 0.035320577301798939 0.043819280894680152 0 0.043819280894680152 0.027586556519730188 0 0 0 0.015726783455382254 0.078087927508124419 0.062911190493884273 0 0.062911190493884273 0.059872921257800582 0 0 0 0.034490212191481226 0.035397232023340497 0.046918665557320938 0 0.046918665557320938 0.03109202121362542 0 0 0 0.01662231330924141 -0.0080442404064985928 0.03148737482616093 0 0.03148737482616093 0.033846780855032454 0 0 0 0.006450635112133507 0.024245737457147476 0.05128899193877684 0 0.05128899193877684 0.069820310683006648 0 0 0 0.023516512035038517 0.032376037584746664 0.043455171283965505 0 0.043455171283965505 0.056373035223838519 0 0 0 0.022187268202146282 0.067863935648659335 0.064712405134450035 0 0.064712405134450035 0.11239526269355826 0 0 0 0.045064799585554371 0.085945158552401257 0.067364102147451921 0 0.067364102147451921 0.16884429529557199 0 0 0 0.063697363461993284 0.11554699821994914 0.081674093950835636 0 0.081674093950835636 0.077704970972749685 0 0 0 0.04831299229817472 0.12033440975182566 0.064767066098389003 0 0.064767066098389003 0.073864825793628297 0 0 0 0.048549808886363482 0.085620167396674329 0.045898997265354846 0 0.045898997265354846 0.036114872077463112 0 0 0 0.03043375986853436 0.10007577566075422 0.04615318748875763 0 0.04615318748875763 0.040611000434370881 0 0 0 0.0351716940237813 0.1157514889065312 0.022438135179032148 0 0.022438135179032148 0.033017322576721853 0 0 0 0.037192202870813262 0.074643318868288233 0.034308224059929282 0 0.034308224059929282 0.024124363929631354 0 0 0 0.024691920699479897 0.070230964451332256 0.032121881004204322 0 0.032121881004204322 0.02293963830401502 0 0 0 0.023292650688836902 0.092471185382940635 0.022010643320823475 0 0.022010643320823475 0.034583133372164454 0 0 0 0.031763579688776189 0.085823183445593032 0.016780124702861832 0 0.016780124702861832 0.034091251059819028 0 0 0 0.029978608626353043 0.085172488585176009 0.012445569960804426 0 0.012445569960804426 0.043008590933572677 0 0 0 0.032045269879687144 0.076798873957917235 0.013798036421357684 0 0.013798036421357684 0.040218212938286146 0 0 0 0.029254271724050873 0.067857190959555613 0.020826782234055541 0 0.020826782234055541 0.027006493614633698 0 0 0 0.023715921143547203 0.067418241255404965 0.025627784727649025 0 0.025627784727649025 0.022678596056727951 0 0 0 0.022524209328033229 0.043799515916165321 0.02142757964626063 0 0.02142757964626063 0.019635371711416327 0 0 0 0.015858721906895468 0.045028693139832543 0.019659060546223017 0 0.019659060546223017 0.020333771710030535 0 0 0 0.016340616212465908 0.042036135851327039 0.023106535334710576 0 0.023106535334710576 0.017074052080856106 0 0 0 0.014777546983045786 0.018386226878256529 0.0278309766833299 0 0.0278309766833299 0.012693763875606834 0 0 0 0.0077699976884658684 0.046757457996181473 0.032947104879043121 0 0.032947104879043121 0.020277395689680677 0 0 0 0.01675871342146551 0.055280895481216979 0.026797602461384962 0 0.026797602461384962 0.018405741984630797 0 0 0 0.018421659366461812 0.029332698366612231 0.033420676538031602 0 0.033420676538031602 0.015218805320760032 0 0 0 0.01113787592184301 0.021669362811868556 0.039660680879320953 0 0.039660680879320953 0.019483960772189612 0 0 0 0.010288330896014511 0.0011355834989092983 0.026146473707436835 0 0.026146473707436835 0.010232880404883016 0 0 0 0.0028421159759480785 -0.0053350826356350356 0.030458526812305431 0 0.030458526812305431 0.017664976401347399 0 0 0 0.0030824734414280353 -0.0016092533808516052 0.018586814062667399 0 0.018586814062667399 0.012157530902147773 0 0 0 0.0026370693803241529 -0.0014758452554533563 0.027208022572481338 0 0.027208022572481338 0.010088635372577759 0 0 0 0.002153197529281059 0.020297568105720698 0.024852894664888048 0 0.024852894664888048 0.013065782845921081 0 0 0 0.0083408377379101672 0.020608101730413608 0.021307330895260712 0 0.021307330895260712 0.0096513396825219089 0 0 0 0.0075648603532341152 0.0082952666306332721 0.015992646733210991 0 0.015992646733210991 0.010843857442545509 0 0 0 0.0047847810182946949 0.00082090226363751295 0.016731064610935764 0 0.016731064610935764 0.0083524026535468643 0 0 0 0.0022933262292962331 -0.0077772764473612588 0.01937783709640617 0 0.01937783709640617 0.011013083380110089 0 0 0 0.00080895173318695779 -0.018612657157883183 0.0061892526349542898 0 0.0061892526349542898 0.0085436629570794231 0 0 0 -0.0025172485502010788 -0.0027193585681574151 0.0056869652837296947 0 0.0056869652837296947 0.010746664047628141 0 0 0 0.0020068263698677091 -0.01401062726409108 0.0080695541450401809 0 0.0080695541450401809 0.011694078757572779 0 0 0 -0.00057913712662960304 -0.037683470827135357 0.0083731045014260319 0 0.0083731045014260319 0.0087945747330855362 0 0 0 -0.0072222240235126356 -0.028012805227632498 0.021669122979298128 0 0.021669122979298128 0.0095357267927056455 0 0 0 -0.0046192696087317131 -0.024093887509198386 0.010790420958760455 0 0.010790420958760455 0.011071441831205231 0 0 0 -0.003255611419498261 0.0091186988211373679 0.00354986205285579 0 0.00354986205285579 0.01056769786908987 0 0 0 0.0049215991725568634 0.0027990795303252103 0.001922763159941443 0 0.001922763159941443 0.0083497378060752858 0 0 0 0.0027872043340999575 0.012150453274290873 0.0059908821600420659 0 0.0059908821600420659 0.010527097704487343 0 0 0 0.0056693877446947205 -0.0029494633799536096 0.0030943938731948784 0 0.0030943938731948784 0.0088447870021304276 0 0 0 0.0014738309055442045 0.0011415458250251254 0.0027898822267873324 0 0.0027898822267873324 0.0092338167469796506 0 0 0 0.0025938406430009442 -0.0099638200902203433 0.0043182766022836824 0 0.0043182766022836824 0.0081237385531789386 0 0 0 -0.0004600203842604067 -0.0061834204605837328 0.010317901301386545 0 0.010317901301386545 0.0077096593678369629 0 0 0 0.00038155972681330752 6.3730642270165561e-06 0.006534996501648932 0 0.006534996501648932 0.0085517092111393467 0 0 0 0.0021395205688417018 0.0086615414387831713 0.012558336613695514 0 0.012558336613695514 0.0091584681114351696 0 0 0 0.0044550023875546962 0.010285408272924679 0.0093070537181727531 0 0.0093070537181727531 0.012076628881783957 0 0 0 0.0055905092886774366 0.018478463531608869 0.012844969625441127 0 0.012844969625441127 0.01170558340117811 0 0 0 0.0075460117331969112 0.024451812315545718 0.0086885997964334383 0 0.0086885997964334383 0.014486390478006594 0 0 0 0.0097345506983879115 0.02290922114729077 0.0051294089980100654 0 0.0051294089980100654 0.01547497043301016 0 0 0 0.0095960478950753991 0.01141201296972838 0.0083700310363454822 0 0.0083700310363454822 0.011584494124620148 0 0 0 0.0057491267735871876 0.020488246330634119 0.006648335493926405 0 0.006648335493926405 0.015026539488415314 0 0 0 0.0088786964547624136 0.040386157930731859 0.0048831743091588553 0 0.0048831743091588553 0.02477329627713809 0 0 0 0.016289863551967265 0.043343707102523887 0.0066894370878030074 0 0.0066894370878030074 0.03299242087396248 0 0 0 0.019084031994121786 0.055103916697651467 0.0059501335690175239 0 0.0059501335690175239 0.033208093562636432 0 0 0 0.022078002565071975 0.024511443553877132 0.0098551306742854783 0 0.0098551306742854783 0.017645430215868174 0 0 0 0.010539218442436438 0.024205664597150678 0.015054732226197961 0 0.015054732226197961 0.013276621699155111 0 0 0 0.0093705715740766138 0.039313446345337122 0.009759794422376844 0 0.009759794422376844 0.020227492673972503 0 0 0 0.01488523475482767 0.039872917879309133 0.013378099940743793 0 0.013378099940743793 0.018488525812656142 0 0 0 0.014590360922991374 0.052459786649948326 0.014285509749468073 0 0.014285509749468073 0.026246319403084861 0 0 0 0.019676526513258352 0.040948095411014851 0.010581325171296008 0 0.010581325171296008 0.02605436575267106 0 0 0 0.016750615290921367 0.065366297638943527 0.0070479563210058549 0 0.0070479563210058549 0.042257669618845917 0 0 0 0.026905991814447416 0.06595779678596303 0.012740616211347554 0 0.012740616211347554 0.0418575104899368 0 0 0 0.026953826818974846 0.061699511775865412 0.01355694565389931 0 0.01355694565389931 0.02923161622726056 0 0 0 0.022732782000781437 0.072528668007605934 0.010475042526929768 0 0.010475042526929768 0.045364276856418417 0 0 0 0.029473236216005838 0.081583602776454489 0.0055336640064944653 0 0.0055336640064944653 0.064830967635027825 0 0 0 0.036603642602870634 0.073628638780837363 0.0024862096869858741 0 0.0024862096869858741 0.056446620679973414 0 0 0 0.032518814865202694 0.08121234729615967 0.0080772599857249494 0 0.0080772599857249494 0.069300926752161374 0 0 0 0.037628318512080261 0.059227637877746243 0.010196536007682999 0 0.010196536007682999 0.04051386053427028 0 0 0 0.024935374603004247 0.06804523661445791 0.0065428875691420085 0 0.0065428875691420085 0.056464044495720289 0 0 0 0.031127320277544807 0.084827574021995478 -0.0025689775671302595 0 -0.0025689775671302595 0.07635454953282661 0 0 0 0.040295530888705411 0.072735646225459583 -0.0035312392412694127 0 -0.0035312392412694127 0.074605271940342277 0 0 0 0.036835229541450687 0.093125213875798751 0.002763329989706298 0 0.002763329989706298 0.078243826051077825 0 0 0 0.042842259981719311 0.086368114522181294 0.00079385259369191274 0 0.00079385259369191274 0.076234595992175969 0 0 0 0.040650677628589538 0.097031756177608397 -0.0056207588857093427 0 -0.0056207588857093427 0.10084487116007423 0 0 0 0.049469156834420325 0.11113680832352757 0.0035392498421855656 0 0.0035392498421855656 0.10391291235723155 0 0 0 0.053762430170189779 0.0857478208169975 -0.0073237318028958054 0 -0.0073237318028958054 0.086257216962317251 0 0 0 0.043001259444828577 0.069645748664157292 -0.000688003570984419 0 -0.000688003570984419 0.076128679811213296 0 0 0 0.036443607118842536 0.036945946801129059 0.0022989917657392227 0 0.0022989917657392227 0.026939890651252796 0 0 0 0.015971459363095519 0.043281005924216132 0.00064900523217015227 0 0.00064900523217015227 0.04594506802055065 0 0 0 0.022306518486191473 0.059695177871821326 -0.0040332067164476071 0 -0.0040332067164476071 0.048083644530717784 0 0 0 0.026944705600634666 0.038880720917868317 0.002394749778341837 0 0.002394749778341837 0.02567103520026226 0 0 0 0.016137939029532422 0.063546110378768006 -0.0013124162530991912 0 -0.0013124162530991912 0.048031746485388993 0 0 0 0.027894464216039472 0.04468626370706974 0.0019209513698652536 0 0.0019209513698652536 0.043023767209838137 0 0 0 0.021927507729226914 0.060513111480844817 0.00021931845202471933 0 0.00021931845202471933 0.043397849296059832 0 0 0 0.025977740194226495 0.025944187543514907 0.0030458176889063271 0 0.0030458176889063271 0.022613723981300904 0 0 0 0.012139477881203731 0.011541446035886249 0.0016985750895699425 0 0.0016985750895699425 0.012731400634208967 0 0 0 0.0060682116675239151 0.020486525469766148 0.0013899563424151218 0 0.0013899563424151218 0.01574014927019185 0 0 0 0.0090566686849899991 0.012688957157481084 0.0038488397406950536 0 0.0038488397406950536 0.01370218398936629 0 0 0 0.0065977852867116216 0.023420850558363737 0.00166766541950647 0 0.00166766541950647 0.024854752487156073 0 0 0 0.012068900761379897 0.025452521699528941 -0.0018044466891331545 0 -0.0018044466891331545 0.022089465224842009 0 0 0 0.01188549673109307 0.016788625756543496 -0.00023777251903656094 0 -0.00023777251903656094 0.010726457475382922 0 0 0 0.0068787708079818266 0.022109216859779401 0.002111561154978514 0 0.002111561154978514 0.014733369705124844 0 0 0 0.0092106466412258392 0.01571805578753227 0.0025434967925432872 0 0.0025434967925432872 0.014976069588527707 0 0 0 0.0076735313440148278 0.012565923677793744 0.00075170384458211892 0 0.00075170384458211892 0.010697988945094217 0 0 0 0.0058159781557223234 0.011015904029885976 0.0013815012087343703 0 0.0013815012087343703 0.010295795118994588 0 0 0 0.0053279247872203561 0.0099302546065911379 0.00075153701042274257 0 0.00075153701042274257 0.0080514279064756167 0 0 0 0.0044954206282667997 0.0071113522469843371 0.0011642636835695885 0 0.0011642636835695885 0.0082595645005554275 0 0 0 0.0038427291868849967 0.0096384508001774449 0.0019622728868391448 0 0.0019622728868391448 0.0096077650440280493 0 0 0 0.0048115539610513736 0.005406391848435943 0.0020621953023460815 0 0.0020621953023460815 0.0099992945253122301 0 0 0 0.0038514215934370988 0.0097622029120253695 0.00074614234622871756 0 0.00074614234622871756 0.0099968031984124517 0 0 0 0.0049397515276091986 0.0018688957272086082 0.001140303945531107 0 0.001140303945531107 0.0088758282694785251 0 0 0 0.0026861809991716168 0.055103188441142648 0.012616458507016981 0 0.012616458507016981 0.028818799078420665 0 0 0 0.020980496879890842 0.068790413344311463 0.012954859689287376 0 0.012954859689287376 0.053234739524490982 0 0 0 0.030506288217200639 0.067052598624689042 0.016270998616638388 0 0.016270998616638388 0.047913333043450135 0 0 0 0.028741482917034822 0.062962689739054029 0.017015524867625004 0 0.017015524867625004 0.044500848531303205 0 0 0 0.026865884567589315 0.053195570829226803 0.013837247037026656 0 0.013837247037026656 0.027726897467967998 0 0 0 0.020230617074298723 0.045442382981473683 0.0096530155379279878 0 0.0096530155379279878 0.018706573280315331 0 0 0 0.01603723906544724 0.046512157635079709 0.0070853160168685425 0 0.0070853160168685425 0.018709939589158564 0 0 0 0.016305524306059527 0.051177407535645258 0.0094214677102452127 0 0.0094214677102452127 0.020138215575755958 0 0 0 0.017828905777850346 0.04622394124124557 0.0064563898288403643 0 0.0064563898288403643 0.011939399294091824 0 0 0 0.014540835133834307 0.047284368740818684 0.0028182307904484061 0 0.0028182307904484061 0.010788090517625651 0 0 0 0.014518114814611051 0.057347528539334752 0.0084065533131670034 0 0.0084065533131670034 0.022508042571086184 0 0 0 0.019963892777605241 0.056398721847375793 0.011792345063120574 0 0.011792345063120574 0.021935608706177168 0 0 0 0.019583582638388219 0.052985017300933725 0.010987412725903006 0 0.010987412725903006 0.027088093032641786 0 0 0 0.020018277583393869 0.06297872255522724 0.012415235717543537 0 0.012415235717543537 0.041645591671586546 0 0 0 0.026156078556703433 0.061735696570174442 0.013954038855241657 0 0.013954038855241657 0.038178489797587034 0 0 0 0.024978546591940348 0.068465234467342345 0.010187189487298437 0 0.010187189487298437 0.057775539315813473 0 0 0 0.031560193445788892 0.071249928363652765 0.0063931075840402141 0 0.0063931075840402141 0.079750860839499615 0 0 0 0.037750197300788074 0.083706566075834404 0.0067343196594916166 0 0.0067343196594916166 0.092620531673268558 0 0 0 0.044081774437275706 0.073988035039453004 0.014801994399303076 0 0.014801994399303076 0.066407785012078557 0 0 0 0.035098955012882904 0.089791841980623732 0.0095217829613940541 0 0.0095217829613940541 0.071163677071091169 0 0 0 0.040238879762928614 0.097691879060451736 0.0032202772891126749 0 0.0032202772891126749 0.090238394356385143 0 0 0 0.046982568354209109 0.075346240857562197 0.0099115871693876423 0 0.0099115871693876423 0.087131626702695086 0 0 0 0.040619466890064349 0.033691327133602927 0.0047221105259820217 0 0.0047221105259820217 0.10089981523384568 0 0 0 0.033647785591862156 0.085472402911458412 0.0050049618958181163 0 0.0050049618958181163 0.066157308283942839 0 0 0 0.037907427798850257 0.094048569260047121 0.0062328313652546541 0 0.0062328313652546541 0.09336562179324881 0 0 0 0.046853547763323955 0.093306944666650793 0.00070347223275324389 0 0.00070347223275324389 0.094592815435248223 0 0 0 0.046974940025474643 0.037941562369186256 0.00487397248052698 0 0.00487397248052698 0.11365550748789521 0 0 0 0.037899267464270373 0.093625537993964364 0.010783741936631591 0 0.010783741936631591 0.099768691171639334 0 0 0 0.048348557291400918 0.10434407712914406 0.0037742980201316279 0 0.0037742980201316279 0.097825696671911544 0 0 0 0.050542443450264041 0.042342755145099623 0.0049190871533123393 0 0.0049190871533123393 0.1266988548855684 0 0 0 0.042260402507667008 0.097760719224874226 0.0069686916140969668 0 0.0069686916140969668 0.094681527220860262 0 0 0 0.048110561611433733 0.075717625327791083 0.012196252054317722 0 0.012196252054317722 0.071486343165463428 0 0 0 0.036800992123313669 0.093723124691849485 0.0091310721662986316 0 0.0091310721662986316 0.10423509717831952 0 0 0 0.049489555467542273 0.078416406069150957 0.018507712506505736 0 0.018507712506505736 0.070145315739062686 0 0 0 0.037140430452053452 0.087786633094161945 0.013465321536158481 0 0.013465321536158481 0.075327783309415974 0 0 0 0.040778604100894442 0.095907539120026392 0.018147135331852263 0 0.018147135331852263 0.089226203937396553 0 0 0 0.046283435764355674 0.084592284189909522 0.011796127157873981 0 0.011796127157873981 0.074364943960800567 0 0 0 0.03973930703767755 0.11264160638906931 0.012102924372917073 0 0.012102924372917073 0.10856954248782569 0 0 0 0.055302787219223687 0.11134317042957009 0.0066301306445985947 0 0.0066301306445985947 0.11709493057721709 0 0 0 0.057109525251696824 0.10683761469255226 0.0069424523471457444 0 0.0069424523471457444 0.095252465978315271 0 0 0 0.050522520167716856 0.11191541114089665 -0.0013680838633858272 0 -0.0013680838633858272 0.11490749848747761 0 0 0 0.056705727407093454 0.046738980146385015 0.0048516958769853572 0 0.0048516958769853572 0.14034487751577432 0 0 0 0.046770964415539837 0.13518328007682931 0.010182033452613981 0 0.010182033452613981 0.12207353731138276 0 0 0 0.064314204347053039 0.12490822643642222 0.0041496603038126967 0 0.0041496603038126967 0.11924114460036538 0 0 0 0.061037342759196728 0.10667217806851248 -0.0022075818892480226 0 -0.0022075818892480226 0.11492256481211349 0 0 0 0.055398685720156493 0.12270172787695194 0.0068887941773891903 0 0.0068887941773891903 0.12271217781093235 0 0 0 0.061353476421970699 0.052469547744730477 0.0048047555247555194 0 0.0048047555247555194 0.15560371560665803 0 0 0 0.052018315837847127 0.14424015901819631 -0.00041342331927651799 0 -0.00041342331927651799 0.13521159723787513 0 0 0 0.069862939064018192 0.12418427452458691 -0.0040579131655422707 0 -0.0040579131655422707 0.13458219577080932 0 0 0 0.064691617573849225 0.088006909572878378 0.017019628816998644 0 0.017019628816998644 0.076523783863495898 0 0 0 0.041132673359093541 0.11907210293669648 0.011937458348830976 0 0.011937458348830976 0.12724315598223601 0 0 0 0.061578814729733228 0.1442501640460998 0.0025608507637579717 0 0.0025608507637579717 0.13017552124477827 0 0 0 0.068606421322719546 0.12030376542306714 0.0099480682320177705 0 0.0099480682320177705 0.1246348151601997 0 0 0 0.06123464514581678 0.10312333060086151 0.0020258843752709935 0 0.0020258843752709935 0.080954074641816476 0 0 0 0.04601935131066956 0.05622382262254122 0.0095900529194450357 0 0.0095900529194450357 0.03771439364610174 0 0 0 0.023484554067160712 0.081008044207333929 0.010402872942395114 0 0.010402872942395114 0.067079092041152477 0 0 0 0.037021784062121588 0.067120646413785956 0.0070089497176011699 0 0.0070089497176011699 0.025488972798533682 0 0 0 0.023152404803079951 0.07299374831429542 0.0090482067372920361 0 0.0090482067372920361 0.060624676723246784 0 0 0 0.033404606259385544 0.063511626225948414 0.012315854498862508 0 0.012315854498862508 0.034049918409724267 0 0 0 0.024390386158918143 0.057067430654887119 0.015256261727743275 0 0.015256261727743275 0.033757222958951782 0 0 0 0.022706163403459767 0.062246936358723692 0.012459682398346328 0 0.012459682398346328 0.044856964149689635 0 0 0 0.026775975127103332 0.073743143267583244 0.01880313795003391 0 0.01880313795003391 0.057167645407889767 0 0 0 0.032727697168868253 0.047531348991749045 0.011074295297606118 0 0.011074295297606118 0.021353500321165786 0 0 0 0.017221212328228763 0.048381633999628512 0.011103906122996388 0 0.011103906122996388 0.026193178232874745 0 0 0 0.018643703058125835 0.048699626429426962 0.012263673226734051 0 0.012263673226734051 0.024832447108269817 0 0 0 0.018383018384424243 0.052504726618094542 0.0096669513754985559 0 0.0096669513754985559 0.032955829426057751 0 0 0 0.021365139011038113 0.042076351991325922 0.0073465699583411537 0 0.0073465699583411537 0.017650084915917352 0 0 0 0.014931609226810805 0.046294133368460902 0.0038417797980623836 0 0.0038417797980623836 0.013271796780313927 0 0 0 0.014891482537193704 0.044691952999058371 0.0061877791755886868 0 0.0061877791755886868 -0.0033298654687894391 0 0 0 0.010340521882567233 0.041665460521425945 0.0023316940412591303 0 0.0023316940412591303 0.0058445619098597135 0 0 0 0.011877505607821415 0.042577472537321415 4.1026457954784767e-05 0 4.1026457954784767e-05 -0.013392093735339339 0 0 0 0.0072963447004955051 0.04642464861028317 0.0047829426931492725 0 0.0047829426931492725 0.0067122707220619304 0 0 0 0.013284229833086303 0.039914720451253077 0.0020209376883504604 0 0.0020209376883504604 0.012720200587875652 0 0 0 0.013158730259782175 0.043003137726601241 0.0063091980964315453 0 0.0063091980964315453 0.0080216350059409691 0 0 0 0.012756193183135638 0.07693047431890282 -0.0083075964529073388 0 -0.0083075964529073388 0.033856869384487398 0 0 0 0.027696835925847541 0.066998009007350201 -0.00050162986407331633 0 -0.00050162986407331633 0.0039608173681302903 0 0 0 0.017739706593870135 0.051959784628405836 -0.0029648005498378732 0 -0.0029648005498378732 0.017811330394621683 0 0 0 0.017442778755756838 0.066114477060981669 -9.0721163503254543e-05 0 -9.0721163503254543e-05 0.042651395248835877 0 0 0 0.027191468077454373 0.059808374393844566 -0.00094604978793344507 0 -0.00094604978793344507 0.02149911162256829 0 0 0 0.020326871504103228 0.052644451182939506 0.00091316008931530135 0 0.00091316008931530135 0.024470436552593289 0 0 0 0.019278721933883192 0.055273495951965346 0.00043473373567809448 0 0.00043473373567809448 0.034793949186619377 0 0 0 0.022516861284646195 0.068448255239990458 -0.005326028904438701 0 -0.005326028904438701 0.039555909840470305 0 0 0 0.027001041270115239 0.04850102098975749 0.0048617391897811668 0 0.0048617391897811668 0.017484085224541923 0 0 0 0.016496276553574815 0.047407331167279271 0.0018669124308093588 0 0.0018669124308093588 0.024736749743250463 0 0 0 0.018036020227632454 0.040518600178871239 0.0061675702899257612 0 0.0061675702899257612 0.017804892528352712 0 0 0 0.014580873176806008 0.046291324926181043 0.0066270627683479022 0 0.0066270627683479022 0.019652839169882363 0 0 0 0.016486041024015796 0.044475254941249792 0.0057910048612466736 0 0.0057910048612466736 0.014760720930651172 0 0 0 0.014808993967975193 0.04731348218332404 0.004083115422262612 0 0.004083115422262612 0.019860033602800753 0 0 0 0.016793378946531157 0.045014585989227474 0.0027379352163012238 0 0.0027379352163012238 0.018215558563734136 0 0 0 0.015807536138240375 0.043089267263194786 0.0049559863490899192 0 0.0049559863490899192 0.018609697151829474 0 0 0 0.015424741103756023 0.049445048681135279 0.00027543764098131307 0 0.00027543764098131307 0.022731757358083915 0 0 0 0.018044201509804764 0.046838206432117169 0.0012427456365360634 0 0.0012427456365360634 0.023901757779837496 0 0 0 0.017684991052988652 0.056596791074217258 -0.0037401645205692169 0 -0.0037401645205692169 0.033963731164794064 0 0 0 0.022640130559752815 0.060175239211229414 -0.0024405741087833027 0 -0.0024405741087833027 0.04364526198347507 0 0 0 0.025955125298676107 0.050099794875263004 0.00014590290114369076 0 0.00014590290114369076 0.02542753371705242 0 0 0 0.018881832148078814 0.045890779189746878 -0.00087421600495543594 0 -0.00087421600495543594 0.017744760905895163 0 0 0 0.015908885023910524 0.050307842764140354 -0.0036077012819353826 0 -0.0036077012819353826 0.02728432332003361 0 0 0 0.019398041521043463 0.052820110266090153 -0.0035035818202636057 0 -0.0035035818202636057 0.035219727110659682 0 0 0 0.02200995934418748 0.047895451240910672 -0.0036295265577800662 0 -0.0036295265577800662 0.019273131189371226 0 0 0 0.016792145607570488 0.043912699792190035 -0.0022236925637051444 0 -0.0022236925637051444 0.0084005381416182301 0 0 0 0.013078309483452066 0.049240410439384909 0.00026752486597095282 0 0.00026752486597095282 0.012682272438766292 0 0 0 0.015480670719537829 0.044756222139617413 0.0026462830182787389 0 0.0026462830182787389 0.011376016429802793 0 0 0 0.014033059642355045 0.048759209430159725 0.0048458127605587875 0 0.0048458127605587875 0.016215557174960309 0 0 0 0.016243691651280052 0.048231909584276568 0.00067565664934959857 0 0.00067565664934959857 0.018400678093084544 0 0 0 0.016658146919340179 0.068191606919285053 -0.011044666078165566 0 -0.011044666078165566 0.063264136281231176 0 0 0 0.03286393580012914 0.022534003913105251 -0.0067174783886962226 0 -0.0067174783886962226 0.067442473688436366 0 0 0 0.022494119400385398 0.076444496548544794 -0.0089929720043877559 0 -0.0089929720043877559 0.056740511689732598 0 0 0 0.03329625205956932 0.067577800695746676 -0.0088372403454756165 0 -0.0088372403454756165 0.057041289122421568 0 0 0 0.031154772454542123 0.057191008576075619 -0.0062801538826912015 0 -0.0062801538826912015 0.05292885484796428 0 0 0 0.027529965856009975 0.051831146919386777 -0.008565374220447064 0 -0.008565374220447064 0.032952739331668951 0 0 0 0.021195971562763892 0.053376203013891399 -0.0075826725127542682 0 -0.0075826725127542682 0.036573647368273288 0 0 0 0.022487462595541186 0.059492005224113798 -0.0050808727216600791 0 -0.0050808727216600791 0.037713640135996096 0 0 0 0.024301411340027501 0.07108805209882138 -0.0038059824903462491 0 -0.0038059824903462491 0.063092856370513428 0 0 0 0.033545227117333681 0.065725071154852044 -0.0072400229043344255 0 -0.0072400229043344255 0.055709175476032935 0 0 0 0.030358561657721217 0.077006453857816834 -0.0043661766925522927 0 -0.0043661766925522927 0.056171802353832956 0 0 0 0.033294564052912465 0.069992675531114656 -0.0080188779099577556 0 -0.0080188779099577556 0.052137049746908359 0 0 0 0.030532431319505782 0.084524002129625631 -0.0063456097042499243 0 -0.0063456097042499243 0.07796976609433437 0 0 0 0.040623442055990056 0.10331806664754092 -0.0083093883981592565 0 -0.0083093883981592565 0.080986948041456452 0 0 0 0.046076253672249351 0.074547532876238054 -0.0073555092937015454 0 -0.0073555092937015454 0.067344680875599305 0 0 0 0.035473053437959368 0.077883562939589868 -0.014300643548164405 0 -0.014300643548164405 0.067962051140091795 0 0 0 0.036461403519920332 0.031545596745331847 -0.0067346108790842085 0 -0.0067346108790842085 0.094387579768847929 0 0 0 0.031483294128544947 0.084741202210423083 -0.0087434025422002959 0 -0.0087434025422002959 0.070973447083607422 0 0 0 0.038928662323507612 0.083813559417282413 -0.0095730855025215195 0 -0.0095730855025215195 0.067751151965374401 0 0 0 0.037891177845664537 0.026801456338082633 -0.006804410626030803 0 -0.006804410626030803 0.080232219214578987 0 0 0 0.026758418888165401 0.097351695639775082 -0.0049149304606321831 0 -0.0049149304606321831 0.08576322727898722 0 0 0 0.045778730729690631 0.036775566006836721 -0.0065201414887626312 0 -0.0065201414887626312 0.11019314406431771 0 0 0 0.036742177517788605 0.12726291974003812 -0.0071986767724356859 0 -0.0071986767724356859 0.09453507570885622 0 0 0 0.055449498862223556 0.11127783848060788 -0.0097341702418898279 0 -0.0097341702418898279 0.090682454751487659 0 0 0 0.050490073308023999 0.096461355842927587 -0.0042483448463231932 0 -0.0042483448463231932 0.08565337588089772 0 0 0 0.045528682930956244 0.075799648886034285 -0.0015211842594735625 0 -0.0015211842594735625 0.05626370344461841 0 0 0 0.033015838082663188 0.090815478298996666 -0.0092191370044868298 0 -0.0092191370044868298 0.065701603086007809 0 0 0 0.039129270346251244 0.1010593231310668 -0.0037281497666119545 0 -0.0037281497666119545 0.090100873962038031 0 0 0 0.047790049273276181 0.10097238312815443 -4.4023972064433092e-05 0 -4.4023972064433092e-05 0.070707502041441106 0 0 0 0.042919971292398884 0.085293158858044144 -0.0088568240646036134 0 -0.0088568240646036134 0.049560781263321307 0 0 0 0.033713485030341384 0.11507655348493667 -0.0093329236499778423 0 -0.0093329236499778423 0.096898625411844241 0 0 0 0.052993794724195242 0.14299949286387847 -0.0018811340120030162 0 -0.0018811340120030162 0.1016216435584765 0 0 0 0.06115528410558875 0.11844687532990683 -0.011063867818797979 0 -0.011063867818797979 0.089463481199862693 0 0 0 0.051977589132442437 0.10093183061239161 0.0026611795135652039 0 0.0026611795135652039 0.054287510620632015 0 0 0 0.038804835308255875 0.1164848566646931 -0.011050321256799611 0 -0.011050321256799611 0.094074790275582743 0 0 0 0.052639911735068767 0.043001518458868855 -0.0063791613416201518 0 -0.0063791613416201518 0.12820665883792481 0 0 0 0.042802044324198416 0.14432876347715862 -0.0026167279608306933 0 -0.0026167279608306933 0.10820637363993235 0 0 0 0.06313378427927252 0.12321214461347285 0.0032033865009404305 0 0.0032033865009404305 0.10163381850070374 0 0 0 0.056211490778544038 0.10728262425321267 -0.0060000931156776183 0 -0.0060000931156776183 0.074331067993617883 0 0 0 0.045403423061707415 0.08366401694917025 0.0047088939348791659 0 0.0047088939348791659 0.055364084012199388 0 0 0 0.03475702524034241 0.080588778936706795 -0.0066534034881112758 0 -0.0066534034881112758 0.053974304870320289 0 0 0 0.033640770951756771 0.093533127135764532 0.00068413332742922606 0 0.00068413332742922606 0.070952858687326481 0 0 0 0.041121496455772538 0.062698113994894333 -0.0025208299769932108 0 -0.0025208299769932108 0.04811802449032454 0 0 0 0.027704034621304663 0.036297010076835057 -0.0055745914881502046 0 -0.0055745914881502046 0.025651626566732144 0 0 0 0.015487159160891717 0.033632645658399296 -0.00716082907910859 0 -0.00716082907910859 0.017658533311498914 0 0 0 0.012822794742474608 0.055178036749821358 -0.00060073821389612647 0 -0.00060073821389612647 0.02647634914050867 0 0 0 0.020413596472582674 0.056450717863594457 -0.0089195230257654856 0 -0.0089195230257654856 0.033240756319591114 0 0 0 0.022422868545796226 0.033631584490914967 -0.01214144703948114 0 -0.01214144703948114 0.028112470495517794 0 0 0 0.015436013746608079 0.029938620356314005 -0.011097208472990512 0 -0.011097208472990512 0.017423781011216111 0 0 0 0.011840600341882501 0.044699060768311816 -0.011332592622407711 0 -0.011332592622407711 0.029165850905455759 0 0 0 0.018466227918441824 0.068689242406568277 -0.008402809838010783 0 -0.008402809838010783 0.053475355603618935 0 0 0 0.030541149502547174 0.083462273124246145 -0.01221700487811811 0 -0.01221700487811811 0.057193528704113206 0 0 0 0.035163950457089976 0.063152408948633165 -0.0052448109874827509 0 -0.0052448109874827509 0.049614617317168763 0 0 0 0.028191756566450343 0.0079625221679741065 -0.0028216259152460399 0 -0.0028216259152460399 0.0086880125580206524 0 0 0 0.0041626336814989395 0.0057044623410138495 -0.0015885918826918815 0 -0.0015885918826918815 0.00643597283450692 0 0 0 0.0030351087938800259 0.0082251448767763861 -0.0010610126826482436 0 -0.0010610126826482436 0.0067223061354265536 0 0 0 0.0037368627530508462 0.009947634355356616 -0.0020417503255306668 0 -0.0020417503255306668 0.0076339473495714572 0 0 0 0.0043953954262319073 0.0080594353409459973 -0.0030191897717362082 0 -0.0030191897717362082 0.0071802940977550023 0 0 0 0.0038099323596754164 0.012668762795756683 -0.0054702906525124773 0 -0.0054702906525124773 0.0085820143937898052 0 0 0 0.0053126942973864555 0.020400373287537743 -0.0043218584805084781 0 -0.0043218584805084781 0.0096707276221099647 0 0 0 0.007517775227412038 0.013531635382976637 -0.0015666037074715256 0 -0.0015666037074715256 0.005667716573519499 0 0 0 0.0047998379891236453 0.020998618803097262 -0.002025939857773551 0 -0.002025939857773551 0.0098123345682538648 0 0 0 0.0077027383428378369 0.016909473366526984 -0.0083576447965502121 0 -0.0083576447965502121 0.013002278482415752 0 0 0 0.007477937962235448 0.012162497185805532 -0.011953360743499508 0 -0.011953360743499508 0.013598807279729508 0 0 0 0.0064403261163837877 -0.00055975232626159083 -0.0077931839408791337 0 -0.0077931839408791337 0.0075946624997500767 0 0 0 0.0017587275433721475 0.015249647787160175 -0.0067067560149109973 0 -0.0067067560149109973 0.010030120737690829 0 0 0 0.0063199421312127579 0.0079514364627882861 -0.0085409776377307622 0 -0.0085409776377307622 0.01052394644750887 0 0 0 0.0046188457275742056 0.0035014575585850249 -0.0032597651073398293 0 -0.0032597651073398293 0.00712099804274402 0 0 0 0.0026556139003323376 -0.0074204385816194233 -0.0037516307595315546 0 -0.0037516307595315546 0.0057334445082804688 0 0 0 -0.00042174851833507164 0.0012185999286216109 -0.0036457999865988633 0 -0.0036457999865988633 0.0086131756926155489 0 0 0 0.002457943905309401 -0.018061460601291213 -0.0047314503523502305 0 -0.0047314503523502305 0.0072702344691810694 0 0 0 -0.0026978065330274248 0.00063257981404851726 -0.0068036227093650758 0 -0.0068036227093650758 0.0088586410346356281 0 0 0 0.0023728052121709808 -0.0014681951820308958 -0.010215201329295653 0 -0.010215201329295653 0.0074879543708918916 0 0 0 0.0015049397972154432 -0.012492739703090311 -0.0047172562215482827 0 -0.0047172562215482827 0.0041057316347878903 0 0 0 -0.002096752017075626 -0.002281563738583639 -0.011628738500421121 0 -0.011628738500421121 0.0083962487242214001 0 0 0 0.0015286712464092495 0.011018451649360661 -0.013057460710020008 0 -0.013057460710020008 0.011906651153576142 0 0 0 0.0057312757007343951 0.0080710172836606642 -0.016199525146560201 0 -0.016199525146560201 0.01053822659469672 0 0 0 0.0046523109695892906 0.0097258478055890496 -0.015198290110537277 0 -0.015198290110537277 0.014457008310526653 0 0 0 0.0060457140290288702 -0.0026916161188995646 -0.01235453018258259 0 -0.01235453018258259 0.0072315454436684412 0 0 0 0.0011349823311921359 -0.003370580240792842 -0.015418227594490408 0 -0.015418227594490408 0.0093202699634213765 0 0 0 0.0014874224306572481 0.0080864886717056939 -0.018619504274214327 0 -0.018619504274214327 0.013599170571692909 0 0 0 0.0054214148108496785 -0.008908073517442161 -0.015272042567687549 0 -0.015272042567687549 0.0066693330035645371 0 0 0 -0.00055968512846937823 -0.015575048341638364 -0.009205087382080146 0 -0.009205087382080146 0.0065631370649177345 0 0 0 -0.002252977819180213 -0.019311607144030241 -0.0072915586298978319 0 -0.0072915586298978319 0.0036576161072945368 0 0 0 -0.0039134977591838149 -0.02106985462769928 -0.0078881543112542252 0 -0.0078881543112542252 0.007085295412073922 0 0 0 -0.0034961398039063951 -0.032082664030505859 -0.0041305110667441136 0 -0.0041305110667441136 0.0040051748552827338 0 0 0 -0.0070193722938056702 -0.017421331147576602 -0.0037676277292960636 0 -0.0037676277292960636 0.005847151703087583 0 0 0 -0.0028935448611222547 0.052501089792465705 -0.015559447213124855 0 -0.015559447213124855 0.035441417778399931 0 0 0 0.021985626892716437 0.042532145806995714 -0.014377370602464357 0 -0.014377370602464357 0.036411071225128655 0 0 0 0.019735804258031009 0.057452783025425225 -0.016241440984450572 0 -0.016241440984450572 0.050501463735329377 0 0 0 0.026988561690188595 0.053148001374554443 -0.017179342029135625 0 -0.017179342029135625 0.039249109319373421 0 0 0 0.023099277673481855 0.025925543390622585 -0.015267027367109165 0 -0.015267027367109165 0.023219114114197525 0 0 0 0.012286164376204889 0.02369428941311047 -0.014914234862925424 0 -0.014914234862925424 0.016343803148088254 0 0 0 0.010009523140299792 0.037822086654845544 -0.017313618965533475 0 -0.017313618965533475 0.023869613850710181 0 0 0 0.015422925126388876 0.030931902897513575 -0.019365102037765869 0 -0.019365102037765869 0.019824774929319666 0 0 0 0.012689169456708393 0.020784295914585582 -0.017374838890542144 0 -0.017374838890542144 0.020278417833105356 0 0 0 0.010265678436922776 0.018105611473797301 -0.015868459348323705 0 -0.015868459348323705 0.013368492093589257 0 0 0 0.0078685258918466117 0.017609437307329168 -0.015796617561817938 0 -0.015796617561817938 0.016725472404733821 0 0 0 0.0085837274280157749 0.045314247034282218 -0.017284751533251819 0 -0.017284751533251819 0.028441731817041127 0 0 0 0.018438994712830836 0.034821322640611219 -0.016634794499892219 0 -0.016634794499892219 0.031174257371730185 0 0 0 0.016498895003085323 0.062532556208975798 -0.012113315948389339 0 -0.012113315948389339 0.045102026381012461 0 0 0 0.026908645647497176 0.048833736640062186 -0.016110157340788578 0 -0.016110157340788578 0.03958647747178512 0 0 0 0.022105053527961882 0.056602726556776783 -0.012535826027302965 0 -0.012535826027302965 0.036899048061734385 0 0 0 0.023375443654627959 0.043505057470307751 -0.018689517877303774 0 -0.018689517877303774 0.027656313761077911 0 0 0 0.017790342807846415 0.045264027822068398 -0.014592299442202361 0 -0.014592299442202361 0.028242637211666866 0 0 0 0.018376666258433816 0.051677119061959709 -0.016779613682809558 0 -0.016779613682809558 0.027539500951436535 0 0 0 0.019804155003349089 0.030538484612675387 -0.021021297745096423 0 -0.021021297745096423 0.019204936623475888 0 0 0 0.012435855309038013 0.034951442042369441 -0.015630663192560679 0 -0.015630663192560679 0.026777068905981527 0 0 0 0.015432127737087686 0.02909245477623934 -0.020999140246559911 0 -0.020999140246559911 0.017569469217922684 0 0 0 0.011665480998540478 0.011275209753781879 -0.020638988736363717 0 -0.020638988736363717 0.011811622068237604 0 0 0 0.0057717079555049677 0.0069849308998641835 -0.016038607695873619 0 -0.016038607695873619 0.010151779839931763 0 0 0 0.004284177684948931 0.027564978849161939 -0.016975067141801858 0 -0.016975067141801858 0.017456590304270034 0 0 0 0.011255392288357993 0.014996201410644061 -0.023069542845853303 0 -0.023069542845853303 0.011471708147904769 0 0 0 0.0066169773896371797 0.02380136752769646 -0.017675273183217821 0 -0.017675273183217821 0.013513779301304041 0 0 0 0.0093287867072501252 0.0056327373054868568 -0.019156907887585173 0 -0.019156907887585173 0.0079705758742110167 0 0 0 0.0034008282949244406 0.00685650771538171 -0.022016976037715019 0 -0.022016976037715019 0.013326115397582883 0 0 0 0.0050456557782411204 0.045726290578426018 -0.019970256769966055 0 -0.019970256769966055 0.018831922090970343 0 0 0 0.016139553167349149 0.048774433178213505 -0.015941692812772842 0 -0.015941692812772842 0.023962965461473251 0 0 0 0.018184349659921661 0.045118440513896796 -0.015413786320570104 0 -0.015413786320570104 0.028091496648496417 0 0 0 0.018302484290598331 0.025042914997972621 -0.021948379395456019 0 -0.021948379395456019 0.016345820963749702 0 0 0 0.010347183990430553 0.042369317314979726 -0.017403307063373022 0 -0.017403307063373022 0.020644327693278619 0 0 0 0.015753411252064642 -0.03391942742042342 -0.0081588227191016216 0 -0.0081588227191016216 0.0053726963401015126 0 0 0 -0.0071366827700803936 -0.042247578032888061 -0.0046462573378417416 0 -0.0046462573378417416 0.0024292385271082878 0 0 0 -0.0099545848764449295 -0.032654068430926816 -0.0044075016212334894 0 -0.0044075016212334894 0.0027627832376519723 0 0 0 -0.0074728212983186521 -0.045175132953083841 -0.0055403584386557502 0 -0.0055403584386557502 0.0053698297634392489 0 0 0 -0.0099513257974113145 -0.022395224281971715 -0.0069512098543462186 0 -0.0069512098543462186 0.0020715672588080825 0 0 0 -0.0050809142557907139 -0.0094925350198363789 -0.013605630162358162 0 -0.013605630162358162 0.0065080071355031466 0 0 0 -0.00074613197108330809 -0.022392320718370828 -0.013957031347582055 0 -0.013957031347582055 0.0061796903401232228 0 0 0 -0.0040531575945618181 -0.0037460699324703139 -0.01411306193438755 0 -0.01411306193438755 0.0065873930855486762 0 0 0 0.00071033078826962526 -0.0075914539582055962 -0.020054713936889512 0 -0.020054713936889512 0.0087600413615585015 0 0 0 0.00029214685083800429 -0.0117980125021514 -0.017930334559633665 0 -0.017930334559633665 0.00720937425982493 0 0 0 -0.0011471595605816454 -0.0084476126531457148 -0.015495719324829182 0 -0.015495719324829182 0.0083057686672873832 0 0 0 -3.5460996464637545e-05 -0.010067457459208673 -0.021028362144713958 0 -0.021028362144713958 0.010498066985984433 0 0 0 0.00010765238169396785 -0.018374980563790992 -0.012498488554710696 0 -0.012498488554710696 0.0054433260816906942 0 0 0 -0.0032329136205249617 -0.028641207800958524 -0.015609106958158481 0 -0.015609106958158481 0.0061499784125984558 0 0 0 -0.0056228073470900308 -0.027641038796910405 -0.012599227387569578 0 -0.012599227387569578 0.0044341935039857727 0 0 0 -0.005801711323231179 -0.028112177421673379 -0.013283757662655188 0 -0.013283757662655188 0.0055216411977112578 0 0 0 -0.005647634055990336 -0.046178609289548089 -0.008470674089729624 0 -0.008470674089729624 0.0039272212320493605 0 0 0 -0.01056284701437471 -0.04390914412263372 -0.0048820213920460764 0 -0.0048820213920460764 0.003425612114480614 0 0 0 -0.010120883002038256 -0.055743468222506531 -0.0076334683999175756 0 -0.0076334683999175756 0.0039552054780662704 0 0 0 -0.012947065686110149 -0.082442365253699079 -0.0052575628710622713 0 -0.0052575628710622713 0.0032493784263246672 0 0 0 -0.019798246706843603 -0.06637836910060757 -0.0058891527830587376 0 -0.0058891527830587376 0.0036497918301414689 0 0 0 -0.015682144317616553 -0.054595762149996785 -0.0031715594759314514 0 -0.0031715594759314514 0.0025534768088903981 0 0 0 -0.013010571335276555 -0.046810792465424078 -0.013848986789137915 0 -0.013848986789137915 0.0069263601116313911 0 0 0 -0.0099711080884481995 -0.036252021221635011 -0.0097441342449237911 0 -0.0097441342449237911 0.0035698524432640211 0 0 0 -0.0081705421945927337 -0.014709615987761437 -0.01444209397071719 0 -0.01444209397071719 0.0073513773080011724 0 0 0 -0.0018395596699400385 -0.018834815935625693 -0.019406102725657071 0 -0.019406102725657071 0.010947994383273318 0 0 0 -0.001971705388088052 -0.016917177447995646 -0.01786520903199447 0 -0.01786520903199447 0.017556298770176282 0 0 0 0.00015978033054520058 -0.026283929226906672 -0.010713021142612023 0 -0.010713021142612023 0.0035428818844739918 0 0 0 -0.005685261835608163 -0.027357096682990134 -0.013194541870892279 0 -0.013194541870892279 0.0087136736982194041 0 0 0 -0.0046608557461926825 -0.042832322875441614 -0.0032375342272243646 0 -0.0032375342272243646 0.0099343290284199526 0 0 0 -0.0082244984617554084 -0.042012165976560462 -0.013189914905765238 0 -0.013189914905765238 0.0083302662608280564 0 0 0 -0.0084204749289331082 -0.056544561482840539 -0.0066422482853949055 0 -0.0066422482853949055 0.0034390917098311435 0 0 0 -0.013276367443252335 -0.05275860754763035 -0.0036275494987912382 0 -0.0036275494987912382 0.0031823981085211533 0 0 0 -0.012394052359777257 -0.082364545757286897 -0.0033833432940679753 0 -0.0033833432940679753 0.0037499635021442934 0 0 0 -0.019653645563785668 0.026932871805948645 -0.019551748121617696 0 -0.019551748121617696 0.018725001240691208 0 0 0 0.011414468261660017 0.053910505907094813 -0.032714046083919646 0 -0.032714046083919646 0.033209727887115292 0 0 0 0.021780058448552547 0.025815610312225457 -0.023918537981457155 0 -0.023918537981457155 0.019233203063382609 0 0 0 0.011262203343902044 0.022544291855298548 -0.018901771288075409 0 -0.018901771288075409 0.012258409205585075 0 0 0 0.0087006752652209474 6.4609374663404662e-05 -0.020028699799646721 0 -0.020028699799646721 0.010309882513326873 0 0 0 0.0025936229719976112 0.001800460880975796 -0.020807761091727689 0 -0.020807761091727689 0.015722752211944968 0 0 0 0.0043808032732302049 0.019345839584987923 -0.026224945619303192 0 -0.026224945619303192 0.021008497963307393 0 0 0 0.010088584387073857 0.0010877156459020432 -0.014797243262717294 0 -0.014797243262717294 0.020787366648709504 0 0 0 0.0054687705736528591 -0.023378422829052697 -0.0094486443294112266 0 -0.0094486443294112266 0.0095171014050322578 0 0 0 -0.003465330356004992 -0.015254419499272892 -0.0064813929819003413 0 -0.0064813929819003413 0.014725688983752483 0 0 0 -0.00013218262888009535 -0.004501905017147978 -0.020178610367598743 0 -0.020178610367598743 0.023126197760144684 0 0 0 0.0046560731857491489 0.023197682161025954 -0.022994705069333016 0 -0.022994705069333016 0.02982127720196065 0 0 0 0.01325473984074664 0.024392947732733372 -0.020703615799338115 0 -0.020703615799338115 0.031425886461683095 0 0 0 0.013954708548604117 0.046706732852260714 -0.029132178477121906 0 -0.029132178477121906 0.045749822439058646 0 0 0 0.023114138822829818 0.06277926190085889 -0.043543028212459506 0 -0.043543028212459506 0.089395225665792777 0 0 0 0.038043621891662903 -0.014896447331897739 0.012080525359248057 0 0.012080525359248057 0.049118484458478773 0 0 0 0.0085555092816452516 0.13526569351707354 -0.044465823644610207 0 -0.044465823644610207 0.042149570300041406 0 0 0 0.044353815954278702 0.003438932869038634 -0.0014811196435994497 0 -0.0014811196435994497 0.010083208288438589 0 0 0 0.003380535289369305 0.070200599682722922 -0.02088545902731942 0 -0.02088545902731942 0.011962990303136467 0 0 0 0.020540897496464885 0.06522274791932936 -0.017161263123490533 0 -0.017161263123490533 0.022106116362569983 0 0 0 0.021832216070474864 0.00845736546573779 -0.0037341745070732504 0 -0.0037341745070732504 0.025288347067895487 0 0 0 0.0084364281334083201 0.091310715821616373 -0.012171115118946807 0 -0.012171115118946807 0.025339854795599082 0 0 0 0.029162642654303905 0.011824375427728538 -0.0050985398475414606 0 -0.0050985398475414606 0.035358520394477733 0 0 0 0.011795723955551568 0.067760263039022439 -0.010636626217755352 0 -0.010636626217755352 0.026877493579607892 0 0 0 0.023659439154657569 0.063316586926674995 -0.017953580687492754 0 -0.017953580687492754 0.020778877111840344 0 0 0 0.021023866009628828 0.027358715021490232 -0.010203239080311018 0 -0.010203239080311018 0.018436956309375641 0 0 0 0.011448917832716482 0.016715521797695351 -0.013530013200986513 0 -0.013530013200986513 0.027276784589948089 0 0 0 0.010998076596910836 0.028606036817882256 -0.010286138788348234 0 -0.010286138788348234 0.023369884383071693 0 0 0 0.01299398030023851 0.0011763037958285316 -0.013801485707289238 0 -0.013801485707289238 0.017925567351522509 0 0 0 0.0047754677868377671 0.026914328856694619 -0.0028657639640687349 0 -0.0028657639640687349 0.03601989496322161 0 0 0 0.015733555954979064 0.022712364476010626 -0.0014978410336562165 0 -0.0014978410336562165 0.01062726153243318 0 0 0 0.0083349065021109461 0.0089080225051160478 -0.0055475303921972419 0 -0.0055475303921972419 0.090250531802913064 0 0 0 0.024789638577007292 0.019762707147379641 0.0016687186297942511 0 0.0016687186297942511 0.034582927922883172 0 0 0 0.013586408767565714 0.029397541910555311 -0.0062152070204342658 0 -0.0062152070204342658 0.015347268309745393 0 0 0 0.011186202555075173 0.034757475152386495 -0.0080812522130656317 0 -0.0080812522130656317 0.033399100824753863 0 0 0 0.017039143994285112 0.026255218788775583 -0.010510785825850182 0 -0.010510785825850182 0.032533138551286395 0 0 0 0.014697089335015498 0.031873408709319373 -0.014579686342328008 0 -0.014579686342328008 0.03487728267753365 0 0 0 0.016687672846713263 0.032369354189605154 -0.01332310319989348 0 -0.01332310319989348 0.048326705718664903 0 0 0 0.020174014977067518 0.04377685910515268 -0.01959990788906131 0 -0.01959990788906131 0.037401781881649859 0 0 0 0.020294660246700631 0.047890899043698656 -0.018432731807742769 0 -0.018432731807742769 0.022068346794015432 0 0 0 0.017489811459428531 0.039532056495511364 -0.013493714657054678 0 -0.013493714657054678 0.020548294013640112 0 0 0 0.015020087627287862 0.041837246118575838 -0.014124952512597717 0 -0.014124952512597717 0.018271066571885541 0 0 0 0.015027078172615366 0.038096689528562752 -0.01242452552144457 0 -0.01242452552144457 0.01680592954972765 0 0 0 0.013725654769572604 0.040673023406968628 -0.014240378765966649 0 -0.014240378765966649 0.010282731420772018 0 0 0 0.012738938706935182 0.032016919826466983 -0.012348522728891115 0 -0.012348522728891115 0.01854196848113919 0 0 0 0.012639722076901519 0.03948048035612127 -0.012224983634506831 0 -0.012224983634506831 0.012352048348349687 0 0 0 0.012958132176117729 0.039360894089089452 -0.012939876392590283 0 -0.012939876392590283 0.012432855501290474 0 0 0 0.012948437397594992 0.035925223985061025 -0.012852426610755613 0 -0.012852426610755613 0.015490403370468198 0 0 0 0.012853906838882323 0.042067679606699895 -0.01176856111624125 0 -0.01176856111624125 0.0090004376562800026 0 0 0 0.012767029315744985 0.042245637143040471 -0.011144603615422133 0 -0.011144603615422133 0.01394618255306479 0 0 0 0.014047954924026329 0.04096289674343094 -0.011884898292678775 0 -0.011884898292678775 0.017551970947311035 0 0 0 0.014628716922685497 0.048688995887201242 -0.012101704593766915 0 -0.012101704593766915 0.0077204520553288969 0 0 0 0.014102361985632555 0.045060556950379721 -0.013306841208339915 0 -0.013306841208339915 0.011497400710081186 0 0 0 0.014139489415115229 0.044110073009033648 -0.012594216284362775 0 -0.012594216284362775 0.010141694803639079 0 0 0 0.013562941953168164 0.047519621179467453 -0.0098258713519303043 0 -0.0098258713519303043 0.0084799633034947641 0 0 0 0.01399989612074054 0.048458387840589416 -0.010358675271065237 0 -0.010358675271065237 0.0073771555576876494 0 0 0 0.013958885849569301 0.046599920667139749 -0.0022624884345520957 0 -0.0022624884345520957 0.0029675676821957486 0 0 0 0.012391872087333888 0.044202821926254354 -0.0068266814291815386 0 -0.0068266814291815386 0.0065284062526372311 0 0 0 0.012682807044722855 0.049869117307259014 -0.0042087017147230954 0 -0.0042087017147230954 0.010900135777279885 0 0 0 0.015192313271134739 0.043721620783973264 -0.0094421825723248615 0 -0.0094421825723248615 0.023171636192333867 0 0 0 0.016723314244076803 0.046762137458439573 -0.0074226816371333881 0 -0.0074226816371333881 0.0160649936305991 0 0 0 0.01570678277225962 0.04195680591808873 -0.0097485713964921838 0 -0.0097485713964921838 0.01328452661519923 0 0 0 0.013810333133322028 0.044895220981359452 -0.0056724526717447654 0 -0.0056724526717447654 0.014604273441539639 0 0 0 0.014874873605724787 0.045546160116194001 -0.0082467262540512343 0 -0.0082467262540512343 0.022617450784343074 0 0 0 0.01704090272513431 0.04903405110178588 -0.0059960992282783307 0 -0.0059960992282783307 0.026977784936686899 0 0 0 0.019002959009618181 0.049691783037961068 -0.0079447864435504001 0 -0.0079447864435504001 0.036658856485891067 0 0 0 0.021587659880963062 0.043978457680436456 -0.010775328774686455 0 -0.010775328774686455 0.031876528601034959 0 0 0 0.018963746570367868 0.044103843615182631 -0.0091856714651253335 0 -0.0091856714651253335 0.026807568862596165 0 0 0 0.01772785311944472 0.048126420151755001 -0.0072676814753232311 0 -0.0072676814753232311 0.044778142230001095 0 0 0 0.023226140595439038 0.070574901819471958 -0.0088307972033550008 0 -0.0088307972033550008 0.046104475034578818 0 0 0 0.029169844213512708 0.018660707928401063 -0.0064630474925596784 0 -0.0064630474925596784 0.05584522670495766 0 0 0 0.018626483658339681 0.053214695175808915 -0.0092578741090515448 0 -0.0092578741090515448 0.048138502850065601 0 0 0 0.025338299506468584 0.060513205831332462 -0.01241477420465939 0 -0.01241477420465939 0.050360841386714039 0 0 0 0.02771851180451157 0.059024225051187318 -0.011104537513262014 0 -0.011104537513262014 0.041739135365092106 0 0 0 0.025190840104069967 0.070920945003530883 -0.0078520556955781751 0 -0.0078520556955781751 0.037935474917052181 0 0 0 0.027214104980145731 0.03629171141749267 -0.010511138246731555 0 -0.010511138246731555 0.039116976442607504 0 0 0 0.018852171965025075 0.015134021492012203 -0.0059635750459103576 0 -0.0059635750459103576 0.045283354103562733 0 0 0 0.015104343898893733 0.061840837611012223 -0.009969407316013118 0 -0.009969407316013118 0.035045528936767267 0 0 0 0.024221591636944928 0.056596801995315527 -0.015299314460891056 0 -0.015299314460891056 0.023822983521636365 0 0 0 0.020104946379237931 0.074522733154509357 -0.0085109656038702686 0 -0.0085109656038702686 0.030150163865773738 0 0 0 0.026168224255070816 0.031101262018417536 -0.010880594978574548 0 -0.010880594978574548 0.028977534727964882 0 0 0 0.015019699186595598 0.034717945539310617 -0.013808775704690163 0 -0.013808775704690163 0.017770338312912026 0 0 0 0.013122070963055642 0.035905598307893423 -0.012559527874969417 0 -0.012559527874969417 0.022867237722612802 0 0 0 0.014693209007626558 0.040231743989558338 -0.010040912115131084 0 -0.010040912115131084 0.031770978240538428 0 0 0 0.018000680557524185 
</DataArray>
<DataArray type="Float64" Name="von_mises_stress" format="ascii">
0.029630679948093045 0.022711510100267937 0.034269701424574285 0.027009485274404933 0.021819224301662648 0.021828243378563473 0.028628279602832322 0.029263992718649632 0.028771768972287868 0.025135851643457441 0.033363751972633818 0.026929093829339733 0.039423325158840727 0.032598600415972095 0.044748585811479891 0.038005460804238597 0.036883512670147695 0.036234317508657472 0.017868400727478164 0.022863197779085669 0.01786370922251064 0.024732853651064871 0.022841425275985719 0.021439004715470351 0.01877216790994217 0.026170278038434587 0.023583661439669348 0.02174120873509082 0.016897742569496547 0.018758437511302337 0.021040236835982863 0.015037931453996768 0.018514702976203151 0.01353970478103674 0.020832605378090042 0.02708634963089792 0.024436152303957553 0.018346945153611148 0.02552674018433615 0.029086495131723185 0.021438806295184947 0.023271317119529109 0.019243155375449208 0.014206695683675597 0.022130200925759146 0.015257328249570531 0.013768958366493314 0.016594279133766807 0.043359269491890035 0.038315899342270886 0.053631694243404124 0.039348704752261411 0.031982354260453906 0.032468409005756448 0.034242997367048882 0.036433998290898384 0.027679619682380755 0.038659733122358236 0.030025071173708368 0.037239399798124441 0.048193516821241636 0.046236555770591908 0.04521567766661283 0.060283777176832656 0.063571044160123963 0.048269036147667005 0.053791551306247833 0.074084111032105451 0.057878435962469617 0.053055536771924032 0.060223523970099065 0.080398889301764601 0.035720816726371174 0.033716321317060816 0.042451303791276859 0.043614824156674142 0.033927654169009343 0.052649539151789666 0.040481444017490036 0.040596610783949993 0.031664927068659393 0.024161091039665687 0.021995138983702381 0.021330636729963895 0.018615602407403752 0.031369017099605663 0.011352447614874701 0.017574897985771627 0.013470672970333551 0.0062659687872720594 0.014820745458570029 0.01436080631652141 0.0087316958662727769 0.0084408661650578285 0.024767784822211515 0.02591338846257487 0.013670576353959223 0.016352717578007225 0.025418530197174865 0.031217898468044594 0.027733827146691873 0.0262363084573113 0.014982377124538239 0.019921553289742402 0.0088077637737964867 0.015534893063003137 0.014686408623906456 0.027271143182817648 0.03120803290041764 0.029533297635968521 0.034490551788465204 0.034968508369697546 0.016690075274471666 0.029643856066542688 0.028334148511505067 0.037229154390296067 0.043404588214366976 0.045979478799615836 0.057106006619566593 0.058907907108415987 0.085146149378187555 0.063067384562059348 0.061507760884816229 0.063387356914931497 0.055755934101541109 0.084853380667520767 0.064165306905175662 0.046490190508354574 0.037750088511090664 0.046775186321907018 0.029271508346304844 0.025429866393251715 0.023780211372139905 0.02557161325859119 0.025730602768657306 0.029664682920446585 0.034317173535233343 0.031584503867988431 0.031370538793443627 0.028356118113662544 0.028915971110103252 0.032819179352278884 0.033024404255705887 0.036582675035624901 0.038105371625743185 0.081348294624199652 0.05261314407776544 0.051435028556499528 0.038494715241568958 0.041254818351006362 0.033523256669502663 0.052578140196874255 0.031412248596464951 0.021393850105490508 0.03039349804537167 0.014709812544449181 0.020696582419294514 0.036561041360817011 0.031358107174513747 0.030334517230687898 0.018875161162477519 0.023586000077605199 0.017864722525814274 0.011802699964946765 0.013150490717040768 0.011607761355397246 0.015955952496919366 0.010474036959844252 0.010575510491105918 0.011485637857069726 0.013111318701593518 0.010800859566011175 0.014916734451009422 0.013309860328421484 0.013624561070564567 0.012389130988563339 0.01187337066487185 0.011911718654100517 0.016299205928896363 0.016346839706507577 0.016833121167691929 0.013244307067536824 0.012622348408693881 0.012658762603799117 0.016082671381824041 0.013208883584675148 0.016442025025459488 0.021361366614174485 0.018733182347047902 0.025975478465995048 0.017237625816023217 0.021936939978885094 0.01374200236385247 0.017342337574774651 0.017047651624477037 0.017719240010184455 0.017787662600045384 0.023781151805117806 0.025883507250532272 0.025006167281718474 0.021806543808767891 0.021680164559204868 0.016024899159612901 0.019826032655421554 0.022323060688116788 0.020553486526064511 0.024607666911236184 0.02600069885055226 0.021743468674287125 0.028953137330674571 0.028032125875172606 0.030645339169726421 0.028522841314348409 0.026448257499913207 0.012984310568681774 0.015577688985534166 0.014682075740307287 0.018160866352093748 0.014600416473105554 0.016879324108779917 0.016375215612168627 0.018130864452361933 0.021003065922424791 0.018072264722131224 0.023469194297678738 0.018392859808311183 0.018243197990787951 0.014961220519131532 0.017806898474864694 0.015204271333918197 0.017143010558967602 0.019608915901432475 0.016141789776429844 0.014780000632431695 0.019499138160606919 0.017045449357671775 0.020558592908238069 0.018855427559797144 0.019653069599812854 0.02408675740309971 0.018585343362594615 0.021880041341767551 0.01794219548980799 0.021910365226867241 0.017259104044804168 0.022342945161350755 0.026931950626653923 0.028750659228970816 0.025439250762756958 0.026464531733279749 0.022061533880520196 0.02408004153390314 0.019142278616214838 0.021752788261672266 0.020218144141352399 0.02254844119053841 0.024749584304592582 0.025461397979147187 0.022855629211683718 0.020575406750422538 0.024106383844493484 0.021343682137631555 0.023901063096598049 0.027106848392289027 0.02806433050628299 0.02953104971371957 0.028744634825219134 0.031124489796187253 0.030820149743777534 0.032413784207405504 0.03114489236609053 0.029577246747695411 0.027965361673157343 0.021013629406253249 0.021303684438299286 0.023696000387510262 0.020722422315654566 0.026140597068972413 0.024829835865643926 0.020143068455530173 0.026036436935197794 0.027090075287315357 0.027280267236080975 0.024168646584029424 0.025086677838714405 0.021928759287060971 0.02710180698583213 0.032120899449308925 0.030222990490555827 0.031946979213629212 0.032404846953705858 0.037479552820704885 0.031253534948357468 0.028900182538731847 0.030042140491206515 0.028628724674494278 0.025580882433975966 0.033751420487676972 0.033004191461496177 0.030745368672006071 0.037589616286260355 0.032462859072104229 0.031388159088247304 0.033111644655061515 0.036847268573241332 0.038563625880591944 0.040063790503392559 0.034571422186046183 0.034946803358550139 0.035852188270764862 0.03420963840529135 0.032057954150231723 0.031329835531596864 0.029114102488962065 0.028854352303022246 0.027969625969386507 0.032185045911863157 0.033261979675573115 0.030752138785171572 0.033430146079654971 0.032356260433461514 0.033485712377977969 0.034218260875433455 0.033103327986789076 0.03614596049603979 0.06139226149563988 0.048006086184279401 0.050692726501300502 0.048719328636236146 0.044252250735988277 0.038025140975928746 0.028972203526507982 0.034726890474805962 0.038379023735438611 0.035916590997600473 0.028003442849548383 0.02801485404586599 0.036037155436023878 0.030487222911363517 0.041512490255862372 0.053065576421766264 0.03385574285715616 0.042631218806317539 0.027498428107180495 0.025738583326584071 0.032971619752471676 0.03080411594291773 0.029086664942445176 0.022768312251919273 0.026826756445604005 0.020809735475205017 0.028619457633063144 0.021120851702164579 0.019990840107601153 0.027903954594606768 0.025946731033457935 0.020716139900962171 0.029544325218868291 0.026542509217291725 0.029526250586103864 0.029616875669410202 0.022781875712940509 0.031867032309196512 0.024973564736568907 0.028952772538815043 0.033946288046347715 0.033122917787134269 0.036125625106577242 0.03262846347832507 0.024904561053909972 0.030527326546205314 0.041290091971569375 0.041472869236575727 0.04954083870738394 0.048209229887759414 0.045623582706423853 0.044181645881673143 0.052706147568627258 0.066135866551927366 0.072204545387078767 0.088605814473958461 0.063803920801674671 0.075802287739880139 0.052215367327357105 0.060084448478811073 0.052895975945648009 0.090755617392901042 0.12659150111156955 0.088905780813884394 0.079284483116779214 0.11427601073085074 0.099299645751352125 0.06940085563997174 0.076937416418117133 0.079906838759132751 0.053179778448171941 0.052002759704621156 0.036658253793672935 0.060275946948271007 0.058362968603106531 0.050595641315432503 0.031557206749012606 0.034974331774064261 0.034324464978488789 0.047367869726293546 0.037781504213435749 0.051405099886943639 0.042514340558926431 0.030972271812154416 0.035763484110572535 0.031721572851021423 0.023490338677300306 0.036851729714289815 0.034387829290083764 0.038406664214460366 0.0247224659909113 0.024346474786610877 0.04246030389255135 0.023096512412706369 0.037766831180387567 0.02489142282650526 0.036192188940142346 0.048317783583181964 0.023666244705876492 0.043400653810428805 0.056014296460653978 0.083309551878168409 0.075650140670056709 0.095976937500510617 0.063476137783088679 0.048648140067754669 0.045468490223072255 0.080169483432409816 0.052981597303427531 0.07795593074051993 0.033852852823653169 0.051605276905257104 0.059874672297401975 0.059300915633320024 0.069453499757731588 0.067891851743327361 0.059838619201100625 0.075321512479232439 0.049829665382410314 0.081523947829837948 0.079444557332030014 0.066494846591938814 0.092299303019880846 0.081054924996287317 0.12545767154287221 0.09163570258228329 0.13383849084506919 0.094811257534987911 0.081939447647770183 0.098501498947359892 0.036807166695969298 0.039640345813023593 0.042751862346722971 0.033972042371703183 0.029667365612213926 0.025667608599529948 0.019181193181930692 0.029924857219653368 0.022001238892728633 0.02208550830916161 0.024556480240244895 0.027845217016870691 0.031420961926502199 0.027839913423345419 0.035239493844395321 0.037280873852998102 0.033003273479453199 0.034743556641482917 0.037502126411980578 0.038935486297875542 0.038628517718674288 0.031925428475703323 0.038891564551879441 0.036474025046141362 0.039328451475018053 0.047444677665264556 0.043944993464246782 0.049992560176915057 0.040576980678996975 0.054034385979573031 0.056870236232092627 0.075267535934335023 0.069947825049997941 0.073106877089424982 0.056833169246164585 0.057583882109939068 0.060419132345752996 0.066224948769686889 0.10882419485538079 0.15742767321482934 0.17294062182611128 0.12201403967855047 0.066166096123873613 0.075628309103437485 0.13772317291197014 0.078490845309923216 0.083123908259921789 0.069572256416794875 0.043759302644045969 0.061387771363269485 0.03809545042966371 0.047056712993596879 0.032870180506863994 0.050057089776846711 0.02641079788312381 0.036491871908772504 0.053036551072779638 0.038727613993860259 0.035694215422836732 0.051135888326642114 0.041095904113837893 0.038236752720905043 0.054320182306819655 0.051717502879889792 0.037299688219283401 0.04989935421582959 0.048976648093574777 0.045547172760447611 0.051464680326907902 0.05651623217098007 0.061349562272572031 0.081877338644183562 0.054201867741709563 0.062731987243765663 0.068456941210607941 0.091521579220095114 0.1120745778201437 0.0950522575913616 0.2368977037765892 0.083703828806029959 0.11620632615518983 0.22812105802378849 0.16576599720794413 0.00048777878555601907 0.26836495272923 0.11596556368753247 9.9268382548705142e-05 0.028182782273528238 0.099147647205557174 0.00013331514554932043 0.032729574918621787 0.081824220289340235 0.070244757831635002 0.035318387324899218 0.03849199326787079 0.046833892396801517 0.030412137410130713 0.028406811038793032 0.033626320132158771 0.038333750672389574 0.068965030824119547 0.059975957317210574 0.064779680495172659 0.00012488841184121616 0.051365179339301903 0.053644361951560221 0.049549363519413338 0.046595213747506865 0.040917164664723976 0.00013453182641679 0.045322470073951966 0.031037915730649145 0.037069246550122101 0.033794120194860083 0.034903253589623637 0.037297867874260204 0.039099366914051838 0.037677375462847648 0.038937225415310014 0.046028108535375679 0.04380887693940403 0.040968842004051535 0.040519217931418321 0.042856257873927987 0.04328760127548812 0.049952511249271386 0.045589622217168217 0.0500050487839779 0.043640325717894501 0.049294665620875283 0.045693560119175303 0.047813222670876114 0.056425991285832248 0.063516935718823025 0.070349869497977696 0.09270570022773264 0.10531108773610517 0.064549114164141844 0.066294215397792094 0.078703483838858945 0.072207594787112195 0.083047964978840816 0.057730563986492185 0.075432041553582407 0.053187930962493551 0.062380982269923523 0.089584684177126978 0.077798336488168141 0.11537706983890382 0.083031837043852377 0.06581882907215747 0.1000124477958682 0.081174026178317954 0.12681167774628085 0.15108051178420889 0.15303637594541569 0.12868942913393336 0.095312372167061843 0.101387587140453 0.089595627092161761 0.077813734445397673 0.072906415632891339 0.070537934312230363 0.061241973772712024 0.053149992055417858 0.049300896663598388 0.055814819676642181 0.0630786568133061 0.045462643652472517 0.043403122942955993 0.047827199792396552 0.049075103207230478 0.063743900963872099 0.059274992500183671 0.060201981890232618 0.069486261682552522 0.046054994229381634 0.056474943523862016 0.034431183076364551 0.048226223630522272 0.044292129463089823 0.038849351831593167 0.028196805924391655 0.029792407385646119 0.037309038199149269 0.025968372618265779 0.015396506042296497 0.026291394901293615 0.043389442219792101 0.049873936243851461 0.035879643947938328 0.0079750485189090461 0.0064781878622286078 0.011907578555093848 0.011628682402662923 0.0088989872628884425 0.017364446160307939 0.021547299133760148 0.01369171879246656 0.022207379491292228 0.017132539049943649 0.024214168498194272 0.019892687120329339 0.014576272087651932 0.015596378734133453 0.015290684303783412 0.022797300614399663 0.024058425296491791 0.030874273575270839 0.020923731301261801 0.02928012094975236 0.027938077884253162 0.033057048779072618 0.038919820925335517 0.027979346438371924 0.035685570993833834 0.040609069605011608 0.043113511628023668 0.041848289222243061 0.040523808458057316 0.036019902076131843 0.041449103671967753 0.034588076603158512 0.034611142845281086 0.041199185123245177 0.037374653340785442 0.044993988442119069 0.041609906823177084 0.050526044310479246 0.05447124260414539 0.044835410890593723 0.036892788506247803 0.018602001864306855 0.022453670312196604 0.029596253294232173 0.020211615551260845 0.031044968327028705 0.022225181184052315 0.029911309518129425 0.013546842069827042 0.00682207144540024 0.010233046899239467 0.0094202677349348209 0.012471717824675868 0.012629953592374333 0.0086631119318057899 0.011790437821378598 0.008871534181202935 0.0061755698556432053 0.0058737838690349304 0.0049548685740340645 0.0044521782211421135 0.005890950889211698 0.0065888134694260742 0.0051100497382911298 0.0069238194202213797 0.037892719198195993 0.040194564688397438 0.043532087515533224 0.042964982238405294 0.038342875165862093 0.032754202845606852 0.031562600150762135 0.036148798331662207 0.034900761562605208 0.035122452580129714 0.038998843156636293 0.041127539930744555 0.03557933624383755 0.038573067472069907 0.040302355814038307 0.03732404702213387 0.040023646257068439 0.046247703817288981 0.043958263164569043 0.046383368708942233 0.047750791745159497 0.045264017284385318 0.00013933930524610019 0.042331154879275835 0.048084813729752512 0.047003932895757508 0.00013679853845857061 0.052103301343108407 0.051275155088954555 0.00016156705747877371 0.049673183857619638 0.042590920691274806 0.052746769676072364 0.049581509076172536 0.048200170208237234 0.056245819118205725 0.045553344967526409 0.059247589720226201 0.058465253186525852 0.052894042489894551 0.056814337285200835 0.00012523761799040908 0.067647892155018957 0.061654708785438654 0.055988269253283041 0.062502924784505406 0.00046937799452368361 0.070302768132209412 0.065692411561612957 0.051573217321728447 0.065341669246459969 0.069821820329334108 0.063723170390760267 0.049987000809149917 0.032929938437568619 0.04290435377493803 0.044534336894158755 0.0384216514981498 0.041242283201576344 0.040266049711159359 0.037543205117350764 0.048351178881736595 0.034328559885824596 0.032965490050496905 0.034876354375416307 0.031991226105267632 0.028850495957435052 0.032922486289944729 0.044174240377176786 0.033462488158758304 0.049017200624490269 0.037787631611795561 0.027204065549472849 0.034639826151875962 0.048638100068886005 0.057408342032478105 0.034716110849876025 0.033945364680443908 0.0389431180866028 0.031136827531772826 0.028672894851415016 0.037950384693137044 0.032627816233668144 0.026855549860357299 0.026714284921489896 0.03059003308258754 0.031338932063054457 0.029954998753445677 0.028478201658848169 0.027587045054208642 0.029343155177848707 0.026682441160427478 0.03063875902077438 0.029941072886152994 0.028515395863149474 0.029146768989034628 0.028511267529978981 0.027451660832454188 0.030592882294028918 0.033640924833019115 0.035245410554321802 0.032459417805723825 0.033594943056560682 0.030761829817495829 0.038264895109959528 0.00012732397880053445 0.040527105770295384 0.035891138942174924 0.029830261215843534 0.030604931332783577 0.029831546196283049 0.031995738550498427 0.034880956646205018 0.033972557830965068 0.038617101388822447 0.036935810539285165 0.04246507788215062 0.05200161634769751 0.038204173578665922 0.044908645733401094 0.00013784578654893611 0.043438983934554871 0.043636841733915896 0.00013078734113472167 0.047632775068557544 0.00011776956997805034 0.06350939770688098 0.056139443235181594 0.047059702446702031 0.037191765784537908 0.04753006738173926 0.049149280948266955 0.050290178170944735 0.04826521704969286 0.057597573495868554 0.070955476035356388 0.060818789340380618 0.056203472429480476 0.059278557791030598 0.00023357521999808152 0.0706047930295753 0.059495671011774866 0.054624426522003514 0.043304001004588602 0.042376319761491393 0.045549785711832852 0.030757300646970406 0.020446844553914566 0.022575112032098523 0.032181325856267352 0.03384502094842224 0.026520938774743593 0.025042160989228433 0.030120507908314574 0.036306751661335963 0.046923386880981244 0.031855189795039388 0.0064503480381020387 0.0041453695373900451 0.0043629439814458779 0.0059867014957245357 0.0065147350070957231 0.011424670434726614 0.014103059902933859 0.0087625396165685251 0.012864493427150504 0.016640909371178497 0.02171804640598483 0.015335094758329799 0.013975549872460084 0.015657010844854716 0.0069825708618013833 0.013121377676805624 0.0093234582594434491 0.023573483169812948 0.01397315686925135 0.019377185541200558 0.016666908107567269 0.022215563741581148 0.023343757956002697 0.028521626594887921 0.027318540128739941 0.023087730172902915 0.028916619981130074 0.033049081728568366 0.029698666560156163 0.025036997623720799 0.023885243541729908 0.0281678235610162 0.032820786690777433 0.021378128510506921 0.037787978108393343 0.032213801259098944 0.039445865534475696 0.039545548510165909 0.029252175620533449 0.028425622145960203 0.035821145256926736 0.037129001751685771 0.031799861126460577 0.028881965497445358 0.02868563754221334 0.038076183632758956 0.033351739299328567 0.0373113924685438 0.036488063139921673 0.036180497208967252 0.039405298381683447 0.034551458370674561 0.040912581408006458 0.039707333786706496 0.031956513328917524 0.039478595686071045 0.036213698851832399 0.02824157729411603 0.032676860439793606 0.040616651150658337 0.033221197470445878 0.033415955910491152 0.038872769536523223 0.044714638934817509 0.039430825244456499 0.035569270029940175 0.04011219109289027 0.038868710254523327 0.037530449606356396 0.040753776944749118 0.032479013321924023 0.045904362995510581 0.02489460907942042 0.027347929377038425 0.034829500721996427 0.026040842244038784 0.037512511945323873 0.035167701530781463 0.030509999162812204 0.040543719973411149 0.030076106422343436 0.040870143150788962 0.035798000529868958 0.037545915084627859 0.04700825868766699 0.043062385354023409 0.054912519160239447 0.077344700373630837 0.063466002744873906 0.051468222916508641 0.053296974370839946 0.039254788662535109 0.031529696850003328 0.042413912033698542 0.04299811662094339 0.032308786172666179 0.038985083541727382 0.046768867031629476 0.049935922204108897 0.054837480860236279 0.050399771481244082 0.077345900655612976 0.036436650558771169 0.063296042826855844 0.043308459515005109 0.035026877679343892 0.035901219246403646 0.038255102263597192 0.046552080273641744 0.031270431134534406 0.033036733940325413 0.028286887698991139 0.042610937726335341 0.042365806027649541 0.038958306977461998 0.055506771119782097 0.087559181298828698 0.059870256697541743 0.12000770270742582 0.00010672020945952454 0.065377748706977976 0.052482906285093729 9.4558373129996557e-05 0.067520246849994206 0.0001124826182951932 0.046397555345140715 0.052593618317397367 0.022429764078521767 0.027455357661363537 0.022512673026606613 0.028366379536560991 0.018285679994792959 0.013628592537488698 0.075294782855669012 0.018912259956749035 0.019724988307143521 0.0220824868541112 0.024020688965150399 0.030380053171013621 0.033622669700463542 0.039935242700054961 0.042723453325902723 0.032282061064088208 0.035226120176304498 0.031487655478136957 0.03825340647352006 0.027448157502068291 0.034179346563178059 0.034839958106253156 0.031208395513710453 0.037397539991888704 0.034213973086294536 0.032385264643964171 0.043555098020510129 0.03969893351665877 0.039053607827004649 0.040357297979056128 0.042219754720826334 0.039959375943955301 0.036948417148798617 0.037721108599983198 0.029391496636458462 0.033447385734972017 0.033051534523952535 0.031716685669705889 0.02981127523494494 0.028876135940367392 0.02797818498260287 0.028597016106143718 0.028138537582077319 0.02657667046152222 0.039165419561866796 0.00012357174880253872 0.030306433596393404 0.036166263702201058 0.035051268584623367 0.041732514583107345 0.026321912190629057 0.00011899431529123394 0.037727233841559245 0.043726517364649352 0.04877273055875786 0.024168907052705673 0.030978244765835283 0.02857647191890645 0.026080120142365711 
</DataArray>
<DataArray type="Float64" Name="cross_section_updated" format="ascii">
1 1 1 1 1 1 1 1 1 1 1 1 1 1 1 1 1 1 1 1 1 1 1 1 1 1 1 1 1 1 1 1 1 1 1 1 1 1 1 1 1 1 1 1 1 1 1 1 1 1 1 1 1 1 1 1 1 1 1 1 1 1 1 1 1 1 1 1 1 1 1 1 1 1 1 1 1 1 1 1 1 1 1 1 1 1 1 1 1 1 1 1 1 1 1 1 1 1 1 1 1 1 1 1 1 1 1 1 1 1 1 1 1 1 1 1 1 1 1 1 1 1 1 1 1 1 1 1 1 1 1 1 1 1 1 1 1 1 1 1 1 1 1 1 1 1 1 1 1 1 1 1 1 1 1 1 1 1 1 1 1 1 1 1 1 1 1 1 1 1 1 1 1 1 1 1 1 1 1 1 1 1 1 1 1 1 1 1 1 1 1 1 1 1 1 1 1 1 1 1 1 1 1 1 1 1 1 1 1 1 1 1 1 1 1 1 1 1 1 1 1 1 1 1 1 1 1 1 1 1 1 1 1 1 1 1 1 1 1 1 1 1 1 1 1 1 1 1 1 1 1 1 1 1 1 1 1 1 1 1 1 1 1 1 1 1 1 1 1 1 1 1 1 1 1 1 1 1 1 1 1 1 1 1 1 1 1 1 1 1 1 1 1 1 1 1 1 1 1 1 1 1 1 1 1 1 1 1 1 1 1 1 1 1 1 1 1 1 1 1 1 1 1 1 1 1 1 1 1 1 1 1 1 1 1 1 1 1 1 1 1 1 1 1 1 1 1 1 1 1 1 1 1 1 1 1 1 1 1 1 1 1 1 1 1 1 1 1 1 1 1 1 1 1 1 1 1 1 1 1 1 1 1 1 1 1 1 1 1 1 1 1 1 1 1 1 1 1 1 1 1 1 1 1 1 1 1 1 1 1 1 1 1 1 1 1 1 1 1 1 1 1 1 1 1 1 1 1 1 1 1 1 1 1 1 1 1 1 1 1 1 1 1 1 1 1 1 1 1 1 1 1 1 1 1 1 1 1 1 1 1 1 1 1 1 1 1 1 1 1 1 1 1 1 1 1 1 1 1 1 1 1 1 1 1 1 1 1 1 1 1 1 1 1 1 1 1 1 1 1 1 1 1 1 1 1 1 1 1 1 1 1 1 1 1 1 1 1 1 1 1 1 1 1 1 1 1 1 1 1 1 1 1 1 1 1 1 1 0.0020282670203323272 1 1 0.0020722846964844901 1 1 0.0021005417322194223 1 1 1 1 1 1 1 1 1 1 1 1 1 0.0021244737594842745 1 1 1 1 1 0.0021467395275925104 1 1 1 1 1 1 1 1 1 1 1 1 1 1 1 1 1 1 1 1 1 1 1 1 1 1 1 1 1 1 1 1 1 1 1 1 1 1 1 1 1 1 1 1 1 1 1 1 1 1 1 1 1 1 1 1 1 1 1 1 1 1 1 1 1 1 1 1 1 1 1 1 1 1 1 1 1 1 1 1 1 1 1 1 1 1 1 1 1 1 1 1 1 1 1 1 1 1 1 1 1 1 1 1 1 1 1 1 1 1 1 1 1 1 1 1 1 1 1 1 1 1 1 1 1 1 1 1 1 1 1 1 1 1 1 1 1 1 1 1 1 1 1 1 1 1 1 1 1 1 1 1 1 1 1 1 1 1 1 1 1 1 1 1 1 1 1 1 0.0021681300741049586 1 1 1 0.0021893906000590622 1 1 0.0022110961309447534 1 1 1 1 1 1 1 1 1 1 1 0.0022339347827505861 1 1 1 1 0.0022589634994220273 1 1 1 1 1 1 1 1 1 1 1 1 1 1 1 1 1 1 1 1 1 1 1 1 1 1 1 1 1 1 1 1 1 1 1 1 1 1 1 1 1 1 1 1 1 1 1 1 1 1 1 1 1 1 1 1 1 1 0.0010561854428600638 1 1 1 1 1 1 1 1 1 1 1 1 1 1 0.0010786303570503788 1 1 0.0010668422504080169 1 0.0010918137081831615 1 1 1 1 1 1 1 1 1 1 1 1 1 0.001106755768142158 1 1 1 1 1 1 1 1 1 1 1 1 1 1 1 1 1 1 1 1 1 1 1 1 1 1 1 1 1 1 1 1 1 1 1 1 1 1 1 1 1 1 1 1 1 1 1 1 1 1 1 1 1 1 1 1 1 1 1 1 1 1 1 1 1 1 1 1 1 1 1 1 1 1 1 1 1 1 1 1 1 1 1 1 1 1 1 1 1 1 1 1 1 1 1 1 1 1 1 1 1 1 1 1 1 1 1 1 1 1 1 1 1 1 1 1 1 1 1 1 1 1 1 1 1 1 1 1 1 1 1 1 1 1 1 1 0.0010083783412488366 1 1 0.001021064898668109 1 0.0010294534955486577 1 1 1 1 1 1 1 1 1 1 1 1 1 1 1 1 1 1 1 1 1 1 1 1 1 1 1 1 1 1 1 1 1 1 1 1 1 1 1 1 1 1 1 1 1 1 1 0.0010465234288082725 1 1 1 1 1 0.0010377237627558363 1 1 1 1 1 1 1 
</DataArray>
<DataArray type="Float64" Name="displacement_divergence" format="ascii">
-2.5749388401251869e-05 -2.8124477068307663e-05 -2.1422546029810057e-05 -2.4275093734779105e-05 -2.2262995762142024e-05 -2.2249207504051969e-05 -2.0595501720177643e-05 -2.2348673849950357e-05 -1.9990506470751013e-05 -1.4753109310154306e-05 -2.2064618120838196e-05 -1.3755950049571971e-05 -2.672272166445685e-05 -2.0170665343118638e-05 -3.276119173267924e-05 -2.6224265945926592e-05 -2.2261760039998361e-05 -2.4524234197433576e-05 -2.7642737676954867e-06 -6.0512163090177762e-06 -6.2734565491636417e-06 -1.2037836341439008e-05 -1.4356039425068803e-05 -8.5405513183268944e-06 -9.7287404515843452e-06 -1.2999653707834373e-05 -1.3719787011520886e-05 -1.2254861256923907e-05 -4.6298760094364575e-06 -5.7802952782971972e-06 -2.766342195986723e-06 7.1225403405213473e-07 -6.2167283898155814e-07 1.1116489580026076e-07 -5.7970944169494435e-06 -1.3591639511224273e-05 -1.116591470542131e-05 -6.205125239110619e-06 -1.2576453292135743e-05 -1.4881567749216552e-05 -9.8675051892314637e-06 -6.1405096473590639e-06 -5.9980904802502673e-06 -2.2207472495016298e-07 -6.5786755028551023e-06 -2.9718507143936819e-06 5.2701723421075433e-06 4.5535899373788229e-07 -3.1942768313749678e-05 -2.4575952012716111e-05 -3.7127629175601801e-05 -2.4544653731469807e-05 -1.8606331793608675e-05 -2.0195346501666985e-05 -2.0519049526712919e-05 -2.2644763120056955e-05 -1.59158278940752e-05 -2.4381068497188759e-05 -1.859426313137864e-05 -2.2951867851646779e-05 -3.2985954336544872e-05 -3.1913106766559058e-05 -3.024512821870765e-05 -4.1865091148156507e-05 -4.4086455165502753e-05 -3.1017454591409957e-05 -3.5694938340211996e-05 -4.9351890759032543e-05 -3.6345275640316458e-05 -3.6458497362549111e-05 -3.8095459126592438e-05 -5.5947441310284985e-05 -1.8909543012036118e-05 -1.6065549502089152e-05 -2.7811567914492501e-05 -2.60734814216561e-05 -1.6841999107540695e-05 -3.1048957021808675e-05 -2.695393546754106e-05 -2.354927354944674e-05 -1.6315951370859908e-05 -9.6701015196494177e-06 -9.0543631762338136e-06 -6.4944631926849681e-06 -2.6981284771848305e-06 -1.6553374574063988e-05 4.0019191390008934e-06 3.7116775488276319e-07 6.0066915951015234e-07 1.0244639735413097e-05 6.1826566669445987e-06 4.1338712364521731e-06 1.2807089661191084e-05 1.6018747125183777e-05 -7.8495788754377431e-06 -1.1979201913258779e-05 1.0653227108644168e-06 -1.4053810988857669e-06 -4.230142922342613e-06 -7.8226302989095489e-06 4.4094931126721464e-06 -6.32967446466794e-06 2.8819602822161935e-05 5.4037622102043922e-06 1.3506798948176777e-05 2.1535016702495279e-05 3.0628188637092023e-05 2.6999462200003304e-05 2.495913226009997e-05 2.6956926320891077e-05 5.0176930266599025e-05 3.2162096575406277e-06 1.0975194556347997e-05 1.2657860346260499e-05 -5.7068463856235502e-06 -7.241787754495323e-06 -1.8771776968522398e-05 -2.5535184546126826e-05 -2.9535141957011529e-05 -3.7522231203110541e-05 -5.492422516425793e-05 -4.0209675754334821e-05 -3.8784699969275779e-05 -4.3475697210166811e-05 -3.4586949070118038e-05 -5.7218488296489607e-05 -4.1078447834224432e-05 -2.4681457046727426e-05 -1.5156753566773111e-05 -2.6492594767792976e-05 4.3570038736580639e-05 3.9206427251320291e-05 3.5522773127171105e-05 3.8869416831915091e-05 4.4410749733932228e-05 4.9092414292683571e-05 4.6237793839941852e-05 4.3968447063481866e-05 4.741584822842388e-05 4.4373339137965313e-05 3.9384231532425855e-05 4.4371056306589815e-05 4.1423317116167879e-05 4.4040924899564453e-05 5.067804439301157e-05 8.9650639326496241e-05 4.5992455977672818e-05 6.1591066262459766e-05 4.200890869032853e-05 8.5659805997685288e-05 5.4331377948776e-05 8.4267285585166475e-05 4.9740880514921034e-05 4.3829498239845238e-05 5.1403965064551543e-05 3.2039251486869086e-05 3.2997672713029293e-05 4.4823360172524117e-05 3.5963532508359003e-05 4.3336651927768286e-05 2.7463441987371749e-05 3.7846480259195182e-05 2.9471428457483159e-05 2.6596861709740266e-05 2.1164092958099696e-05 2.4281005222704407e-05 2.4929538135398741e-05 2.2077534370912193e-05 1.4346670923208669e-05 1.7571569253938765e-05 1.4579229875604104e-05 1.1193900569404822e-05 7.7325193523952942e-06 2.309687581639045e-05 2.1913788017123605e-05 1.9197278004631159e-05 1.7283679306458961e-05 2.3706583578825885e-05 2.0726966215436183e-05 2.6767784272431716e-05 2.7075268536461318e-05 2.7393353155070593e-05 2.9710258356705304e-05 2.6945378597466891e-05 3.6596632250196791e-05 3.1949586123103938e-05 3.2434952077831241e-05 3.8902771913361045e-05 3.1096008458575517e-05 5.0404941491093543e-05 3.6867449333191427e-05 4.3090004979535538e-05 3.4044800424361978e-05 4.0898344895310242e-05 4.0374570895518796e-05 3.277291230266688e-05 3.2845375944913392e-05 3.2681971094068542e-05 2.805176726776364e-05 2.3193449467163713e-05 2.6443711113337693e-05 2.7807864813175583e-05 2.243511168148821e-05 1.9458081990790794e-05 2.1695424002547866e-05 2.4594688603967557e-05 2.0891876634720263e-05 1.9751402911390942e-05 1.7041826477849485e-05 2.1569864566863268e-05 2.1529704708281858e-05 2.458571957748791e-05 2.3305989320979757e-05 2.3524252498048251e-05 8.1446844873052879e-06 1.0711736749267604e-05 6.5336772173608636e-06 1.2771872180772964e-05 1.3822263318868914e-05 1.5431318394305633e-05 1.7124266116122032e-05 1.7966893312188738e-05 1.6282408967854994e-05 1.4529113267356726e-05 1.5679664425467651e-05 1.2914338082142545e-05 1.071930085046561e-05 6.4625203294842114e-06 4.997715579144106e-06 5.5356841839643395e-06 1.1200831321984275e-06 3.2787207963186857e-06 1.0588091198592367e-06 3.7736157338169497e-06 8.1419468498992542e-06 7.6977562637806345e-06 8.9266209979921941e-06 1.1340838996908826e-05 1.2801574732047522e-05 1.4827217113605344e-05 1.3673688321059509e-05 1.1206266358140453e-05 1.1654211764680163e-05 5.8535575747670203e-06 4.6479494788149856e-06 -2.4839144645223313e-07 2.1418499877691422e-05 2.1540311633581198e-05 1.9154000230662138e-05 1.839971436308809e-05 1.671252765606711e-05 1.8566584864099085e-05 1.7744178459875304e-05 1.6132652349956227e-05 2.122157441503399e-05 1.9006649785830578e-05 2.2619700568125214e-05 1.9549768356541019e-05 2.0494590573312862e-05 2.3496098524044324e-05 2.136051124783916e-05 2.6558754130589111e-05 2.0409692825995421e-05 2.3980612266617601e-05 2.3044177581571438e-05 2.3097883779337137e-05 2.1388182279879066e-05 2.4373566985458355e-05 2.1812200796737599e-05 2.1371534500379614e-05 1.9091254606043101e-05 2.2257391917018323e-05 2.171723270049103e-05 2.611038887616815e-05 2.5463518369476029e-05 2.0150448076586324e-05 2.1122732931470132e-05 2.1052894628669724e-05 1.5809979840697031e-05 1.300331553592374e-05 9.8220537762096563e-06 3.2137891633699207e-06 7.4840266030620298e-06 1.090234242575852e-05 1.5386056524914e-05 7.1503024379028577e-06 1.3884290435418121e-05 1.7664730825013119e-05 2.0608077207152309e-05 2.0539274469427093e-05 1.973510139133783e-05 2.5170128664560744e-05 1.4692968515368363e-05 1.0952603475478342e-05 1.4658606316164546e-05 1.7492067795430316e-05 7.5690867856675821e-06 1.4828349935330944e-05 1.9864008440729132e-05 1.9190363244600022e-05 2.9897641355061977e-05 2.2118435918667825e-05 2.2806989107232159e-05 2.5015593032103296e-05 2.3969001390271843e-05 2.902112656652292e-05 3.7438487988406007e-05 3.2386413809937344e-05 3.5085076779138135e-05 2.8107267732320919e-05 3.0264361896058355e-05 3.6214242318492003e-05 3.039569234530655e-05 3.3133290422865833e-05 2.6716357597549374e-05 2.6349173437557001e-05 2.5783112606619901e-05 2.6833966180878913e-05 2.2776060688207613e-05 2.5184743604156496e-05 2.2663770937300316e-05 2.3827409617901509e-05 2.2407263296864492e-05 2.5581958878586705e-05 2.6348699444488519e-05 -4.5164704816025845e-05 -3.1644144147222598e-05 -3.4763685879865218e-05 -2.7792074955516089e-05 -2.6379411390687842e-05 -3.218577903019775e-05 -3.527143478052189e-05 -3.0106955703791739e-05 -2.794017686903402e-05 -2.3980547646280996e-05 -2.5963930448417219e-05 -2.594401903801802e-05 -2.4175109299072314e-05 -1.5327811328730535e-05 -2.377285241093389e-05 -3.5711639888144083e-05 -1.3990005274548102e-05 -2.7741514583275273e-05 -1.3628173412499078e-05 -1.2351110044467412e-05 -1.4106510495632552e-05 -1.2129974429478864e-05 -1.5025786868425765e-05 -6.5108195623193247e-06 -6.9186739118882761e-06 -2.7809269234485686e-06 -4.2471110249780585e-06 3.6398822659054477e-06 6.9232642817880064e-06 5.309824337129237e-07 -2.2744671290197499e-06 -1.276696064372266e-06 2.9650324502867369e-06 8.6681079989782609e-06 -2.2113844751347225e-06 8.843003380246417e-06 3.8772747853863347e-06 -2.8540462552042771e-06 9.5369987766556714e-06 -1.9459991343890398e-06 2.2261503780757507e-06 -1.5836684812574187e-05 -1.439173117348869e-05 -1.4243483005268471e-05 -1.7164963485357402e-06 -1.1360239936336065e-05 -2.4341217495645415e-05 -2.0695223952759855e-05 -2.936032560317461e-05 -2.2073756135051284e-05 -2.9081894525484892e-05 -1.3878117234109746e-05 -2.5978862823662325e-05 -4.6271373685524362e-05 -4.6505060195983075e-05 -5.9503073269826773e-05 -4.2079292416465141e-05 -5.1697675588227048e-05 -3.1454926803343422e-05 -4.4577698232765189e-05 -3.1196417932839423e-05 -5.2538964539815894e-05 -8.1860563572565493e-05 -4.8455630961573553e-05 -4.5399703482083842e-05 -7.273936926632052e-05 -6.5786191278045103e-05 -4.3539007025228304e-05 -4.8125637799199025e-05 -4.4179642110642318e-05 -2.3217230807506088e-05 -2.759428373632312e-05 -2.0013643079706653e-05 -1.8228593708913754e-05 -3.1509308351679225e-05 -1.7848487488274566e-05 8.9140889723778353e-06 2.2704646790126264e-05 2.0355945569469896e-05 -9.5405320287370043e-06 -7.9128002190931591e-07 -1.6727378981884914e-05 -7.8052636157796475e-06 -2.5379345568259921e-06 1.0138627965657484e-05 1.8919334834679595e-06 1.2162100664980261e-05 2.6409158956154064e-05 1.5239942500644056e-05 2.9475359991984964e-05 1.6154757455517486e-05 3.0983103032728153e-05 4.7750837093879411e-05 2.7424531298537378e-05 4.6729816787234954e-05 5.2632829242894397e-05 8.7761670189476373e-05 8.1858928476458343e-05 4.9447908272464797e-05 4.1553144461358728e-05 9.1766538081605384e-05 0.00014682583289956361 0.00013876629652963783 0.00014867431429721315 0.00010666851062349626 7.5991003946912863e-05 8.8169326364999183e-05 7.5330436113319881e-05 4.1158220542112907e-05 3.2958795359130911e-05 2.0767283710776321e-05 5.8216408803654434e-06 5.3786275721134648e-05 5.7789694950127106e-06 -2.5194449341937224e-05 -2.5005732161936963e-05 -4.3576251115133059e-06 -9.9093418893231295e-06 2.7633886841662604e-07 -2.5552109093756071e-05 -5.6549340975203723e-06 -2.4164133926426285e-05 -4.1219371205831914e-05 -4.0370205591734631e-05 -6.9635672078825121e-05 -5.1448944988952161e-05 -8.0482878207174509e-05 -5.7086008370720812e-05 -4.0366131206983056e-05 -5.6080353643145873e-05 5.6217699091044793e-05 6.5098950520486436e-05 6.9822924022482536e-05 6.2915320155395132e-05 5.6679783525729551e-05 4.817807913996258e-05 4.2154423896184657e-05 5.1668021702235882e-05 3.767798993204649e-05 4.155040143832445e-05 3.1157971470360638e-05 4.0806396352635312e-05 3.6176139808772653e-05 4.5743834403299464e-05 4.6418528374864425e-05 4.2095030708825412e-05 3.7599021230901941e-05 3.1738420942582115e-05 4.8174398439604799e-05 4.2633042328591089e-05 5.2529012650738345e-05 3.1418842009489411e-05 4.0341102941854042e-05 5.1352424625049917e-05 6.4900430708034429e-05 8.2731639139980935e-05 6.00553541823731e-05 6.5481385817401063e-05 6.8939603796831745e-05 8.4711520282836409e-05 9.5797341785020863e-05 0.0001190041665882625 0.00013161746242205258 0.00011771982875994201 0.00010517624395722778 0.00011371622941600934 0.00013823797009863417 0.00013391440038592407 0.00022218503057447919 0.00026783805394536814 0.00025492098834911203 0.0001787861621893299 0.0001047675302209183 0.00013812824903358119 0.00016541710537944625 0.00010391757339243052 0.00010787011499645504 0.00011058550854607598 8.0327942357153619e-05 9.7395442780432774e-05 6.6943568210297443e-05 7.8552332008559889e-05 6.1341880803825432e-05 8.3764219659796083e-05 5.1618118460074865e-05 6.164051009176547e-05 7.4840918378954693e-05 5.9101010776451687e-05 5.4806043943638181e-05 7.9455760928324573e-05 5.9160841528475264e-05 5.1801279921503675e-05 6.6785067174681458e-05 4.9133699776107752e-05 3.9969239084514227e-05 5.2537603677101758e-05 5.5947827244919848e-05 3.7095546828936417e-05 5.7696957014040211e-05 4.7003268680514086e-05 5.3938882686265725e-05 8.4507846858585911e-05 7.4592033363242744e-05 7.3575224581442621e-05 7.9261495030484743e-05 0.00010511244615501104 0.00011328042731292929 0.0001300499687567966 0.00027732249468091584 4.4966961486973443e-05 0.00012072253740401005 0.00026079175301647011 0.00016095562708752471 0.014718106674120188 0.00022008193542741631 0.00012282306792203669 0.036073359421139289 4.094167560058146e-05 0.00010914973741648468 0.050347921299037833 4.9136140331218676e-05 8.4489983746734556e-05 4.8180787076303563e-05 5.6848595112846286e-05 5.91688660343038e-05 5.437364679714414e-05 5.0630657180635426e-05 6.6611139916055362e-05 6.529517072041425e-05 5.8606844851228799e-05 8.3232335621841874e-05 9.9087736928909261e-05 0.00010231290466538429 0.062274165148791388 9.6880333701469378e-05 9.9353616059059176e-05 9.1876944748144149e-05 0.00010325131862824613 8.3598639782224752e-05 0.073418211606772227 0.00010260985456312689 6.3748197119811332e-05 5.3627133307657929e-05 7.9395243206753627e-05 7.0465399808678376e-05 7.414530920632381e-05 5.1766252966740456e-05 5.3634322234804481e-05 5.3605043241904868e-05 4.1143530340029646e-05 4.3572082611111279e-05 3.6967998503248156e-05 4.1206097102449357e-05 3.6680944582648408e-05 4.1688622653416929e-05 4.1965651947551102e-05 3.3328585798700675e-05 4.3149209268351484e-05 3.8110193033266278e-05 4.1262302669759033e-05 4.3962554306352375e-05 4.9819812991927243e-05 -2.392277422096111e-05 -2.8192023536229298e-05 -8.3857064364771007e-06 -4.8455030246668542e-05 -5.356956026316426e-05 -2.6457921137822832e-05 -2.5421440413562091e-05 -4.456125188498361e-06 1.061043085560996e-05 3.177357363231062e-05 4.732179468024773e-06 1.603221041139222e-05 -7.0548656716659056e-06 1.453498296332561e-05 5.9518774382820395e-05 3.9316958638455687e-05 8.6225530478703006e-05 4.1555783273103906e-05 1.6126587780333941e-05 5.8791280087596332e-05 5.5468170505365609e-05 0.00011266199896388612 0.00015924340865498333 0.00012078248074543692 0.00012137452221590867 7.6084399671335875e-05 8.7929235059453176e-05 9.2980507177033329e-05 6.1729801748699716e-05 5.8231626722091926e-05 7.9408949221940629e-05 7.4946521565882494e-05 8.0113174699218345e-05 7.3135679310126769e-05 5.9289802858868168e-05 5.6310523320082968e-05 3.9646804767238153e-05 4.0851540531164268e-05 3.6943867457614205e-05 1.9424994221165122e-05 4.1896783553663827e-05 4.6054148416154546e-05 2.7844689804607491e-05 2.5720827240036527e-05 7.1052899398705953e-06 7.70618360357017e-06 6.5926734508100181e-06 5.3829938232026172e-06 2.0852094344775505e-05 1.8912150883085375e-05 1.1961952545736808e-05 5.7333155732398021e-06 2.0223793329682098e-06 -6.2931213755024109e-06 5.0170659246686743e-06 -1.4478428165735999e-06 -1.8055560058781038e-05 -1.1548174021829612e-05 -8.1390285487461557e-06 1.230399793139249e-05 6.9680108352502233e-06 1.417346936173733e-05 3.684577263860303e-06 6.4846016075024906e-06 -1.1500509606507392e-06 9.5389931703288716e-07 5.3488014221045321e-06 1.1137505968886185e-05 1.3976273221693279e-05 1.8865029332991185e-05 2.4336376745970594e-05 2.3990119737687856e-05 1.4372816933967648e-05 2.2196741136906229e-05 4.0724658879918302e-05 4.771007998530404e-05 5.5195006412680787e-05 2.634804610609099e-05 2.3426428935191188e-05 3.7213086887069504e-05 3.6475902307477655e-05 4.9191316283146019e-05 4.187653822730359e-05 6.7264979536118923e-05 6.7384567047437411e-05 5.6831955001953195e-05 7.368309054001424e-05 9.150910650717551e-05 8.1297037163008054e-05 9.4070796280200548e-05 6.2338436507510068e-05 7.7818300693862285e-05 0.0001007388272217637 9.2088073853626058e-05 0.00010710564995429798 0.0001016266940714744 0.00012367289208605088 0.00013440607542547479 0.00010750314861207155 9.1109017797107346e-05 3.9928648407737931e-05 5.5766296215478423e-05 6.7361764001587845e-05 4.0344847573831315e-05 6.9736160540098506e-05 5.4818769323067371e-05 6.4944350485565856e-05 3.0348694703009882e-05 1.5170529168808712e-05 2.2641671712474165e-05 1.6494463216779314e-05 3.0172251903450107e-05 2.9713741827732711e-05 1.7196927019954428e-05 2.302661660306439e-05 1.9183828360036688e-05 1.4539945389304212e-05 1.3319811968050548e-05 1.1238551570666964e-05 9.6068229672122835e-06 1.2028884902627601e-05 9.6285539835927469e-06 1.2349378819022741e-05 6.7154524979297706e-06 5.2451242199727088e-05 7.6265720543001406e-05 7.185370729258689e-05 6.7164711418973193e-05 5.0576542685746721e-05 4.0093097663618129e-05 4.0763810765148895e-05 4.4572264444625749e-05 3.6352087834585762e-05 3.629528703652758e-05 4.9909731944013211e-05 4.8958956595970609e-05 5.0045693958484779e-05 6.5390196391758781e-05 6.2446366479850933e-05 7.8900483614472165e-05 9.4375493251970359e-05 0.00011020443609318942 8.7747387532207386e-05 0.00010059719940732205 0.00011745642088552364 0.00010154866722516078 0.08411946397965539 9.4768569497124654e-05 0.0001171338694083094 0.00011743735006368656 0.094748168660675924 0.00012087139322850232 0.00012635610862565924 0.10565100626916749 0.00012027640402858435 9.200248030828413e-05 0.0001237238886688558 9.2851076130133362e-05 0.0001019465102522363 0.00011570858941088908 9.9348267594193845e-05 0.00013825696804805948 0.00014277381312924201 0.00012630630041929217 0.00014176431851773384 0.11692741103884957 0.00016078551086763253 0.00015259335689799067 0.00013849671430039151 0.00015338369105492747 0.13004578959461779 0.00017465734766004565 0.00016172904393462265 0.00010283168339773386 0.00015394703682433274 0.00017151605330679878 0.00015308661286454197 0.0001150483782766739 5.871138516790167e-05 9.2554460155303952e-05 5.7881012007699817e-05 8.3511515648463795e-05 6.0975965397295421e-05 5.6765408508649287e-05 6.6939937817758202e-05 8.1819242922170562e-05 4.3053030820571609e-05 4.6609257645314575e-05 4.5957545961060873e-05 5.3412847527595545e-05 3.7329023067027138e-05 3.7228706342984363e-05 2.5851304706417887e-05 2.9693764019553693e-05 1.8240861751238823e-05 3.3210574582715705e-05 3.2896825649455629e-05 3.1890482957839188e-05 6.9242089814618808e-05 4.434926648467522e-05 4.3606946889392052e-05 6.7978670193635945e-05 5.0817178760257991e-05 4.819680483470791e-05 5.6292153211615374e-05 6.750260317528792e-05 4.1240691383936923e-05 4.5090050569081112e-05 3.6452182942015021e-05 4.1215102560039662e-05 3.7022484919938133e-05 4.1983447366328005e-05 3.9518840345601045e-05 3.8561852759389902e-05 4.5110503774511968e-05 4.4212477632471622e-05 5.660032639938203e-05 6.4887813246690493e-05 4.7204580370197231e-05 3.9772212559776405e-05 4.8495103802608587e-05 5.5024898360468678e-05 4.1980364018926169e-05 3.2695773708630162e-05 3.8701676798844677e-05 3.508264910588772e-05 4.0609229128199856e-05 4.1645367298350641e-05 8.2159839500322608e-05 0.056235298500963496 8.3240630148923109e-05 7.7886931136355106e-05 6.8824914640025058e-05 5.2989928906909715e-05 5.6218656488852886e-05 6.0753528350068644e-05 8.3863067793334199e-05 7.5896404144303086e-05 8.3236410132281368e-05 7.6331078298764402e-05 0.0001015586051399751 0.00011519063418062331 8.8682633594898419e-05 9.1153508799801186e-05 0.078708235321362355 9.7321655808769092e-05 9.4727944614161376e-05 0.066896047220413493 0.00011444682682422653 0.091855443794471525 0.00013862374715555871 0.00012622518327005955 0.00011382170732739073 8.2539595206657972e-05 9.7823175865628079e-05 0.00011947512318319072 0.00010729992823099735 8.428371257585335e-05 0.00013248448681048807 0.00015288821026397201 0.00012994397283110613 9.7012088270639698e-05 0.00013159977933767213 0.10700511081049605 0.00015783446069818092 0.00014052872694636032 0.00011350855765426902 8.6892563100855746e-05 8.4101927379391216e-05 0.00010280374113943075 6.9260086553261761e-05 3.8717897902228876e-05 3.2056986856186537e-05 5.1033991181456163e-05 5.6057171364491155e-05 3.8590034366520719e-05 2.960150085470686e-05 4.6165569796104101e-05 7.6352873756367596e-05 8.7909876142724507e-05 7.0479391416126318e-05 1.0406584203747141e-05 7.5877719846999953e-06 9.3421568826268029e-06 1.0988488565579456e-05 9.5248308991887666e-06 1.3281735743466989e-05 1.8794438068530598e-05 1.1999594972809686e-05 1.9256845857094992e-05 1.8694844905588616e-05 1.6100815290959647e-05 4.396818858430488e-06 1.5799855328031643e-05 1.1547114318935601e-05 6.6390347508302671e-06 -1.0543712958374189e-06 6.1448597632727565e-06 -6.744516332568215e-06 5.9320130304271572e-06 3.7623494930380617e-06 -5.241880042688963e-06 3.8216781160234467e-06 1.4328189251835641e-05 1.1630777423973174e-05 1.5114285072572418e-05 2.8374558279802876e-06 3.7185560766432628e-06 1.3553537027124075e-05 -1.3992128211738966e-06 -5.6324445479500902e-06 -9.7837443979594766e-06 -8.7403495097658837e-06 -1.7548430734513963e-05 -7.233862152805897e-06 5.4964067231791109e-05 4.9339510645077678e-05 6.7471404225471392e-05 5.7748194183704967e-05 3.0715410940512691e-05 2.5023807850749289e-05 3.8557312815972605e-05 3.1722923641770793e-05 2.5664196092306892e-05 1.9671314729616468e-05 2.1459318570039528e-05 4.6097486782077255e-05 4.1247237507713481e-05 6.7271614118742662e-05 5.5262633819904696e-05 5.8438609136569918e-05 4.4475857019616065e-05 4.5941665646084557e-05 4.9510387508372618e-05 3.1089638272594486e-05 3.8580319342718908e-05 2.916370249635104e-05 1.4429269888762428e-05 1.0710444212372328e-05 2.8138480720895058e-05 1.6542443474092767e-05 2.3321966768125165e-05 8.5020707373111579e-06 1.2614139445602727e-05 4.0348882918372691e-05 4.546087414980418e-05 4.575621072649581e-05 2.5867959976076497e-05 3.9383528130161822e-05 -1.784170692520088e-05 -2.4886462191112512e-05 -1.8682053245797049e-05 -2.4878314493527454e-05 -1.2702285639476767e-05 -1.8653299277085087e-06 -1.0132893986404589e-05 1.7758269706737726e-06 7.3036712709543573e-07 -2.86789890145407e-06 -8.8652491161100822e-08 2.6913095423487625e-07 -8.0822840513129426e-06 -1.4057018367724921e-05 -1.4504278308077466e-05 -1.411908513997617e-05 -2.6407117535936543e-05 -2.5302207505095676e-05 -3.2367664215275172e-05 -4.9495616767108942e-05 -3.9205360794041183e-05 -3.252642833819142e-05 -2.492777022112039e-05 -2.0426355486481869e-05 -4.5988991748500008e-06 -4.9292634702203381e-06 3.9945082636299711e-07 -1.4213154589020087e-05 -1.1652139365481737e-05 -2.0561246154388643e-05 -2.1051187322332788e-05 -3.319091860813075e-05 -3.0985130899443116e-05 -4.9134113909464104e-05 2.853617065414999e-05 5.4450146121381266e-05 2.8155508359755093e-05 2.1751688163052126e-05 6.484057429993772e-06 1.0952008183075527e-05 2.5221460967684564e-05 1.3671926434132139e-05 -8.6633258900125753e-06 -3.3045657220028609e-07 1.1640182964372972e-05 3.313684960186655e-05 3.4886771371510318e-05 5.7785347057074651e-05 9.5109054729157228e-05 2.1388773204113155e-05 0.00011088453988569692 0.0084513382234232635 5.1352243741162106e-05 5.4580540176187237e-05 0.021091070333520794 7.2906606635759824e-05 0.029489309888878917 5.9148597886643918e-05 5.2559665024072035e-05 2.8622294581791264e-05 2.7495191492277107e-05 3.2484950750596222e-05 1.1938669467094411e-05 3.933388988744765e-05 2.0837266255277351e-05 6.197409644251821e-05 3.3966021918914322e-05 2.7965506387687961e-05 4.2597859985712748e-05 3.6742723337538827e-05 4.1719182116783146e-05 5.0435037442668819e-05 5.0736650616751592e-05 4.3724528648571333e-05 3.7550219068219583e-05 3.7567695431538434e-05 3.4314136923931473e-05 3.1847346767337875e-05 3.1599305192253759e-05 3.2395330440294272e-05 3.237109349398746e-05 3.2134767097205731e-05 3.1917573289362555e-05 3.5119887310065823e-05 3.6571792306713726e-05 3.5255904964081306e-05 3.5348723537788047e-05 3.3907354882920426e-05 3.4999740301851418e-05 3.4897214623923155e-05 3.0979680218334719e-05 3.1707017611807208e-05 3.7980783177836777e-05 4.180828561019213e-05 3.9266956930649019e-05 3.4525832833304964e-05 3.7187184014311975e-05 4.2602256812835628e-05 4.7507397524045383e-05 5.3969149702407437e-05 4.7409366425919656e-05 4.4319632798611925e-05 5.8065351488597499e-05 7.2924610533781661e-05 0.046566209145849205 6.3345748766171567e-05 6.9296279511278864e-05 6.2977100260174705e-05 6.803526245036432e-05 4.7130429912562667e-05 0.037760859747234338 6.0553979092362389e-05 5.0262365948094772e-05 6.5420560637676753e-05 3.7549247966488924e-05 3.2805177407639098e-05 3.6733022519066285e-05 4.5001701393810462e-05 
</DataArray>
</CellData>
</Piece>
</UnstructuredGrid>
</VTKFile>
