<?xml version="1.0"?>
<VTKFile type="UnstructuredGrid" version="0.1" byte_order="LittleEndian">
<UnstructuredGrid>
<Piece NumberOfPoints="3142" NumberOfCells="1054">
<Points>
<DataArray type="Float64" NumberOfComponents="3" format="ascii">
0.02576622439977887 0.024532886826226379 0 0 0 0 0.049999999999899652 0 0 0.02576622439977887 0.024532886826226379 0 0 0 0 0 0.050000000000207989 0 0.02576622439977887 0.024532886826226379 0 0.049999999999899652 0 0 0.053064897599215843 0.048131547304697528 0 0.02576622439977887 0.024532886826226379 0 0.053064897599215843 0.048131547304697528 0 0 0.050000000000207989 0 0 0.050000000000207989 0 0 0.10000000000041601 0 0.044310582753132287 0.101412518374475 0 0 0.10000000000041601 0 0.044310582753132287 0.101412518374475 0 0 0.15000000000062411 0 0.053064897599215843 0.048131547304697528 0 0.044310582753132287 0.101412518374475 0 0.083411279318303222 0.089699755330707398 0 0.053064897599215843 0.048131547304697528 0 0 0.050000000000207989 0 0.044310582753132287 0.101412518374475 0 0.044310582753132287 0.101412518374475 0 0.083411279318303222 0.089699755330707398 0 0.065374659239632718 0.1448908038746782 0 0.083411279318303222 0.089699755330707398 0 0.065374659239632718 0.1448908038746782 0 0.1053400320299198 0.12877248826361379 0 0.083411279318303222 0.089699755330707398 0 0.12372429750337779 0.095814237875728972 0 0.1053400320299198 0.12877248826361379 0 0.12372429750337779 0.095814237875728972 0 0.1053400320299198 0.12877248826361379 0 0.14332333627550789 0.14578431753966009 0 0.12372429750337779 0.095814237875728972 0 0.10266856499169109 0.044518360900210059 0 0.14618258501891079 0.062070108745602003 0 0.083411279318303222 0.089699755330707398 0 0.12372429750337779 0.095814237875728972 0 0.10266856499169109 0.044518360900210059 0 0.10266856499169109 0.044518360900210059 0 0.099999999999814668 0 0 0.14999999999970359 0 0 0.049999999999899652 0 0 0.053064897599215843 0.048131547304697528 0 0.099999999999814668 0 0 0.053064897599215843 0.048131547304697528 0 0.10266856499169109 0.044518360900210059 0 0.099999999999814668 0 0 0.053064897599215843 0.048131547304697528 0 0.083411279318303222 0.089699755330707398 0 0.10266856499169109 0.044518360900210059 0 0.044081577119474857 0.2271058242433576 0 0 0.20000000000083221 0 0 0.25000000000104028 0 0.044081577119474857 0.2271058242433576 0 0 0.20000000000083221 0 0.038512288486115001 0.1844147282893184 0 0.044081577119474857 0.2271058242433576 0 0.038512288486115001 0.1844147282893184 0 0.083105206071467416 0.20007701332709979 0 0.038512288486115001 0.1844147282893184 0 0 0.15000000000062411 0 0.065374659239632718 0.1448908038746782 0 0.044310582753132287 0.101412518374475 0 0 0.15000000000062411 0 0.065374659239632718 0.1448908038746782 0 0.038512288486115001 0.1844147282893184 0 0.065374659239632718 0.1448908038746782 0 0.083105206071467416 0.20007701332709979 0 0 0.20000000000083221 0 0.038512288486115001 0.1844147282893184 0 0 0.15000000000062411 0 0.065374659239632718 0.1448908038746782 0 0.1053400320299198 0.12877248826361379 0 0.106902708054812 0.16453234188234539 0 0.1053400320299198 0.12877248826361379 0 0.106902708054812 0.16453234188234539 0 0.14332333627550789 0.14578431753966009 0 0.065374659239632718 0.1448908038746782 0 0.106902708054812 0.16453234188234539 0 0.083105206071467416 0.20007701332709979 0 0.083105206071467416 0.20007701332709979 0 0.095326043202144745 0.24554465089224409 0 0.13737030665753211 0.20313708640667491 0 0.106902708054812 0.16453234188234539 0 0.083105206071467416 0.20007701332709979 0 0.13737030665753211 0.20313708640667491 0 0.044081577119474857 0.2271058242433576 0 0.083105206071467416 0.20007701332709979 0 0.095326043202144745 0.24554465089224409 0 0.044081577119474857 0.2271058242433576 0 0.095326043202144745 0.24554465089224409 0 0.049706944316556423 0.27522722923869108 0 0.095326043202144745 0.24554465089224409 0 0.14377654328998779 0.2442024734791064 0 0.13737030665753211 0.20313708640667491 0 0.17933913398461551 0.2350063570234002 0 0.14377654328998779 0.2442024734791064 0 0.13737030665753211 0.20313708640667491 0 0.17933913398461551 0.2350063570234002 0 0.13737030665753211 0.20313708640667491 0 0.18124454140915969 0.18790916706335251 0 0.18124454140915969 0.18790916706335251 0 0.14332333627550789 0.14578431753966009 0 0.18652628422869419 0.14162325200928061 0 0.106902708054812 0.16453234188234539 0 0.13737030665753211 0.20313708640667491 0 0.14332333627550789 0.14578431753966009 0 0.13737030665753211 0.20313708640667491 0 0.18124454140915969 0.18790916706335251 0 0.14332333627550789 0.14578431753966009 0 0.14332333627550789 0.14578431753966009 0 0.18652628422869419 0.14162325200928061 0 0.16141998738593399 0.10404039647458049 0 0.18652628422869419 0.14162325200928061 0 0.22985637510995899 0.1298347970200906 0 0.2185883431182947 0.18019736283949719 0 0.22985637510995899 0.1298347970200906 0 0.2185883431182947 0.18019736283949719 0 0.25557216766470708 0.15874861286892261 0 0.2185883431182947 0.18019736283949719 0 0.25557216766470708 0.15874861286892261 0 0.26429849586623999 0.19346700179430079 0 0.18124454140915969 0.18790916706335251 0 0.18652628422869419 0.14162325200928061 0 0.2185883431182947 0.18019736283949719 0 0.17933913398461551 0.2350063570234002 0 0.18124454140915969 0.18790916706335251 0 0.224700362040408 0.22206622194729711 0 0.18124454140915969 0.18790916706335251 0 0.2185883431182947 0.18019736283949719 0 0.224700362040408 0.22206622194729711 0 0.2185883431182947 0.18019736283949719 0 0.224700362040408 0.22206622194729711 0 0.26429849586623999 0.19346700179430079 0 0.224700362040408 0.22206622194729711 0 0.25195515620380449 0.25883339815888678 0 0.21049769590865089 0.26857363548218488 0 0.17933913398461551 0.2350063570234002 0 0.224700362040408 0.22206622194729711 0 0.21049769590865089 0.26857363548218488 0 0.184418230509967 0.038773194583122873 0 0.14999999999970359 0 0 0.14618258501891079 0.062070108745602003 0 0.184418230509967 0.038773194583122873 0 0.14618258501891079 0.062070108745602003 0 0.19922788606653311 0.085920220746880993 0 0.184418230509967 0.038773194583122873 0 0.14999999999970359 0 0 0.19999999999955789 0 0 0.10266856499169109 0.044518360900210059 0 0.14999999999970359 0 0 0.14618258501891079 0.062070108745602003 0 0.12372429750337779 0.095814237875728972 0 0.14618258501891079 0.062070108745602003 0 0.16141998738593399 0.10404039647458049 0 0.12372429750337779 0.095814237875728972 0 0.14332333627550789 0.14578431753966009 0 0.16141998738593399 0.10404039647458049 0 0.18652628422869419 0.14162325200928061 0 0.16141998738593399 0.10404039647458049 0 0.19922788606653311 0.085920220746880993 0 0.14618258501891079 0.062070108745602003 0 0.16141998738593399 0.10404039647458049 0 0.19922788606653311 0.085920220746880993 0 0.18652628422869419 0.14162325200928061 0 0.22985637510995899 0.1298347970200906 0 0.19922788606653311 0.085920220746880993 0 0.22985637510995899 0.1298347970200906 0 0.19922788606653311 0.085920220746880993 0 0.24218496799700481 0.089025544070598317 0 0.22985637510995899 0.1298347970200906 0 0.24218496799700481 0.089025544070598317 0 0.27474541102162192 0.11822029332053539 0 0.19922788606653311 0.085920220746880993 0 0.24218496799700481 0.089025544070598317 0 0.22668068146512929 0.045875643423131329 0 0.24218496799700481 0.089025544070598317 0 0.22668068146512929 0.045875643423131329 0 0.27499999999933927 0.060310814194988557 0 0.184418230509967 0.038773194583122873 0 0.19922788606653311 0.085920220746880993 0 0.22668068146512929 0.045875643423131329 0 0.184418230509967 0.038773194583122873 0 0.22668068146512929 0.045875643423131329 0 0.19999999999955789 0 0 0.22668068146512929 0.045875643423131329 0 0.19999999999955789 0 0 0.24999999999941211 0 0 0.24999999999941211 0 0 0.27499999999933927 0.060310814194988557 0 0.29999999999926641 0 0 0.22668068146512929 0.045875643423131329 0 0.24999999999941211 0 0 0.27499999999933927 0.060310814194988557 0 0.27499999999933927 0.060310814194988557 0 0.29999999999926641 0 0 0.32541448401678508 0.046215317981507749 0 0.29999999999926641 0 0 0.32541448401678508 0.046215317981507749 0 0.34999999999912063 0 0 0.32541448401678508 0.046215317981507749 0 0.3615861437013822 0.03582617922508851 0 0.35312867752657662 0.084946736076730367 0 0.3615861437013822 0.03582617922508851 0 0.35312867752657662 0.084946736076730367 0 0.39591832466117061 0.056982757562006353 0 0.32541448401678508 0.046215317981507749 0 0.3615861437013822 0.03582617922508851 0 0.34999999999912063 0 0 0.3615861437013822 0.03582617922508851 0 0.34999999999912063 0 0 0.3999999999989749 0 0 0.35312867752657662 0.084946736076730367 0 0.36246644853392812 0.1399454205365751 0 0.39823268594401579 0.1116623613130045 0 0.35312867752657662 0.084946736076730367 0 0.32215584939770009 0.1218492143506909 0 0.36246644853392812 0.1399454205365751 0 0.32541448401678508 0.046215317981507749 0 0.35312867752657662 0.084946736076730367 0 0.3096713403101819 0.085471541595262421 0 0.35312867752657662 0.084946736076730367 0 0.32215584939770009 0.1218492143506909 0 0.3096713403101819 0.085471541595262421 0 0.32215584939770009 0.1218492143506909 0 0.3096713403101819 0.085471541595262421 0 0.27474541102162192 0.11822029332053539 0 0.27499999999933927 0.060310814194988557 0 0.32541448401678508 0.046215317981507749 0 0.3096713403101819 0.085471541595262421 0 0.27499999999933927 0.060310814194988557 0 0.3096713403101819 0.085471541595262421 0 0.27474541102162192 0.11822029332053539 0 0.24218496799700481 0.089025544070598317 0 0.27499999999933927 0.060310814194988557 0 0.27474541102162192 0.11822029332053539 0 0.22985637510995899 0.1298347970200906 0 0.27474541102162192 0.11822029332053539 0 0.25557216766470708 0.15874861286892261 0 0.27474541102162192 0.11822029332053539 0 0.25557216766470708 0.15874861286892261 0 0.29336099386129338 0.15892013001050981 0 0.25557216766470708 0.15874861286892261 0 0.29336099386129338 0.15892013001050981 0 0.26429849586623999 0.19346700179430079 0 0.29336099386129338 0.15892013001050981 0 0.31255190597181792 0.19850845631528771 0 0.33084213324567391 0.16272720141332131 0 0.29336099386129338 0.15892013001050981 0 0.26429849586623999 0.19346700179430079 0 0.31255190597181792 0.19850845631528771 0 0.32215584939770009 0.1218492143506909 0 0.27474541102162192 0.11822029332053539 0 0.29336099386129338 0.15892013001050981 0 0.224700362040408 0.22206622194729711 0 0.28040350263641872 0.23054717217092141 0 0.25195515620380449 0.25883339815888678 0 0.224700362040408 0.22206622194729711 0 0.28040350263641872 0.23054717217092141 0 0.26429849586623999 0.19346700179430079 0 0.28040350263641872 0.23054717217092141 0 0.26429849586623999 0.19346700179430079 0 0.31255190597181792 0.19850845631528771 0 0.28040350263641872 0.23054717217092141 0 0.33758650185219202 0.23837101504325639 0 0.29132859388405002 0.27203693976649962 0 0.28040350263641872 0.23054717217092141 0 0.33758650185219202 0.23837101504325639 0 0.31255190597181792 0.19850845631528771 0 0.33758650185219202 0.23837101504325639 0 0.31255190597181792 0.19850845631528771 0 0.3572130504031617 0.1874703368446563 0 0.33758650185219202 0.23837101504325639 0 0.3572130504031617 0.1874703368446563 0 0.38831533174504851 0.2189834941785925 0 0.33758650185219202 0.23837101504325639 0 0.38831533174504851 0.2189834941785925 0 0.3786248352540974 0.27082301512024259 0 0.32215584939770009 0.1218492143506909 0 0.29336099386129338 0.15892013001050981 0 0.33084213324567391 0.16272720141332131 0 0.32215584939770009 0.1218492143506909 0 0.33084213324567391 0.16272720141332131 0 0.36246644853392812 0.1399454205365751 0 0.31255190597181792 0.19850845631528771 0 0.33084213324567391 0.16272720141332131 0 0.3572130504031617 0.1874703368446563 0 0.3572130504031617 0.1874703368446563 0 0.36246644853392812 0.1399454205365751 0 0.39801143831225599 0.16651381068160659 0 0.33084213324567391 0.16272720141332131 0 0.3572130504031617 0.1874703368446563 0 0.36246644853392812 0.1399454205365751 0 0.36246644853392812 0.1399454205365751 0 0.39801143831225599 0.16651381068160659 0 0.39823268594401579 0.1116623613130045 0 0.39801143831225599 0.16651381068160659 0 0.42905200079338551 0.19982395548231649 0 0.44288491854585582 0.14116182884956319 0 0.39801143831225599 0.16651381068160659 0 0.44288491854585582 0.14116182884956319 0 0.39823268594401579 0.1116623613130045 0 0.38831533174504851 0.2189834941785925 0 0.42377727103934271 0.25099357235810238 0 0.3786248352540974 0.27082301512024259 0 0.3572130504031617 0.1874703368446563 0 0.39801143831225599 0.16651381068160659 0 0.38831533174504851 0.2189834941785925 0 0.39801143831225599 0.16651381068160659 0 0.38831533174504851 0.2189834941785925 0 0.42905200079338551 0.19982395548231649 0 0.38831533174504851 0.2189834941785925 0 0.42905200079338551 0.19982395548231649 0 0.42377727103934271 0.25099357235810238 0 0.42905200079338551 0.19982395548231649 0 0.46429753744194407 0.22870891180733599 0 0.42377727103934271 0.25099357235810238 0 0.42905200079338551 0.19982395548231649 0 0.46429753744194407 0.22870891180733599 0 0.47357141910802508 0.1873585799078378 0 0.47357141910802508 0.1873585799078378 0 0.51729576145820033 0.1683240575987815 0 0.50760557329222289 0.20700468884612061 0 0.46429753744194407 0.22870891180733599 0 0.47357141910802508 0.1873585799078378 0 0.50760557329222289 0.20700468884612061 0 0.46429753744194407 0.22870891180733599 0 0.49695729691142171 0.25014895411178018 0 0.50760557329222289 0.20700468884612061 0 0.44288491854585582 0.14116182884956319 0 0.47357141910802508 0.1873585799078378 0 0.48466639505193998 0.1421439844745814 0 0.42905200079338551 0.19982395548231649 0 0.44288491854585582 0.14116182884956319 0 0.47357141910802508 0.1873585799078378 0 0.47357141910802508 0.1873585799078378 0 0.48466639505193998 0.1421439844745814 0 0.51729576145820033 0.1683240575987815 0 0.44288491854585582 0.14116182884956319 0 0.48466639505193998 0.1421439844745814 0 0.47881186583059909 0.093591717165689425 0 0.48466639505193998 0.1421439844745814 0 0.47881186583059909 0.093591717165689425 0 0.51076801031701946 0.1202837388510348 0 0.44288491854585582 0.14116182884956319 0 0.47881186583059909 0.093591717165689425 0 0.43698630808430822 0.080423614171545449 0 0.47881186583059909 0.093591717165689425 0 0.47040171442036788 0.044141676406503738 0 0.43698630808430822 0.080423614171545449 0 0.47881186583059909 0.093591717165689425 0 0.47040171442036788 0.044141676406503738 0 0.52375890611712683 0.059318771819432882 0 0.47040171442036788 0.044141676406503738 0 0.49999999999869432 0 0 0.52375890611712683 0.059318771819432882 0 0.47040171442036788 0.044141676406503738 0 0.49999999999869432 0 0 0.44999999999882923 0 0 0.47040171442036788 0.044141676406503738 0 0.44999999999882923 0 0 0.4320097814748517 0.037406712692169303 0 0.47040171442036788 0.044141676406503738 0 0.4320097814748517 0.037406712692169303 0 0.43698630808430822 0.080423614171545449 0 0.4320097814748517 0.037406712692169303 0 0.3999999999989749 0 0 0.39591832466117061 0.056982757562006353 0 0.4320097814748517 0.037406712692169303 0 0.39591832466117061 0.056982757562006353 0 0.43698630808430822 0.080423614171545449 0 0.44999999999882923 0 0 0.4320097814748517 0.037406712692169303 0 0.3999999999989749 0 0 0.3615861437013822 0.03582617922508851 0 0.3999999999989749 0 0 0.39591832466117061 0.056982757562006353 0 0.35312867752657662 0.084946736076730367 0 0.39591832466117061 0.056982757562006353 0 0.39823268594401579 0.1116623613130045 0 0.44288491854585582 0.14116182884956319 0 0.39823268594401579 0.1116623613130045 0 0.43698630808430822 0.080423614171545449 0 0.39591832466117061 0.056982757562006353 0 0.39823268594401579 0.1116623613130045 0 0.43698630808430822 0.080423614171545449 0 0.42161023666869668 0.39493916313643851 0 0.38707855792647411 0.42299362914874578 0 0.43249999999999988 0.43937499999999979 0 0.42161023666869668 0.39493916313643851 0 0.38083244760691543 0.38531983672244652 0 0.38707855792647411 0.42299362914874578 0 0.42161023666869668 0.39493916313643851 0 0.38083244760691543 0.38531983672244652 0 0.40076539126862748 0.34589349467022118 0 0.38707855792647411 0.42299362914874578 0 0.3908716102680424 0.47010282357248828 0 0.43249999999999988 0.43937499999999979 0 0.3908716102680424 0.47010282357248828 0 0.43507373378304309 0.49699695397193322 0 0.38244435121258652 0.51653317813019495 0 0.3908716102680424 0.47010282357248828 0 0.43507373378304309 0.49699695397193322 0 0.43249999999999988 0.43937499999999979 0 0.43507373378304309 0.49699695397193322 0 0.43249999999999988 0.43937499999999979 0 0.46111841286828259 0.46690301029591341 0 0.43249999999999988 0.43937499999999979 0 0.46111841286828259 0.46690301029591341 0 0.48858720058566618 0.43964267759203868 0 0.43507373378304309 0.49699695397193322 0 0.46111841286828259 0.46690301029591341 0 0.49102375406324739 0.49123754822244059 0 0.46111841286828259 0.46690301029591341 0 0.49102375406324739 0.49123754822244059 0 0.48858720058566618 0.43964267759203868 0 0.48858720058566618 0.43964267759203868 0 0.46655310992796922 0.39650496622958609 0 0.52289427570932567 0.3932284363388488 0 0.43249999999999988 0.43937499999999979 0 0.48858720058566618 0.43964267759203868 0 0.46655310992796922 0.39650496622958609 0 0.42161023666869668 0.39493916313643851 0 0.43249999999999988 0.43937499999999979 0 0.46655310992796922 0.39650496622958609 0 0.42161023666869668 0.39493916313643851 0 0.46655310992796922 0.39650496622958609 0 0.4409427642593301 0.35743108089689513 0 0.46655310992796922 0.39650496622958609 0 0.49077833859261139 0.35229981449445641 0 0.52289427570932567 0.3932284363388488 0 0.49077833859261139 0.35229981449445641 0 0.46226845272279993 0.31901800744800313 0 0.5 0.29999999999999999 0 0.49077833859261139 0.35229981449445641 0 0.46226845272279993 0.31901800744800313 0 0.4409427642593301 0.35743108089689513 0 0.46226845272279993 0.31901800744800313 0 0.4409427642593301 0.35743108089689513 0 0.41914690343363781 0.30688979866601612 0 0.46655310992796922 0.39650496622958609 0 0.49077833859261139 0.35229981449445641 0 0.4409427642593301 0.35743108089689513 0 0.49695729691142171 0.25014895411178018 0 0.4604742573284204 0.27846934318264788 0 0.5 0.29999999999999999 0 0.46429753744194407 0.22870891180733599 0 0.49695729691142171 0.25014895411178018 0 0.4604742573284204 0.27846934318264788 0 0.46226845272279993 0.31901800744800313 0 0.4604742573284204 0.27846934318264788 0 0.5 0.29999999999999999 0 0.46226845272279993 0.31901800744800313 0 0.4604742573284204 0.27846934318264788 0 0.41914690343363781 0.30688979866601612 0 0.46429753744194407 0.22870891180733599 0 0.4604742573284204 0.27846934318264788 0 0.42377727103934271 0.25099357235810238 0 0.4604742573284204 0.27846934318264788 0 0.42377727103934271 0.25099357235810238 0 0.41914690343363781 0.30688979866601612 0 0.42377727103934271 0.25099357235810238 0 0.41914690343363781 0.30688979866601612 0 0.3786248352540974 0.27082301512024259 0 0.41914690343363781 0.30688979866601612 0 0.3786248352540974 0.27082301512024259 0 0.36575549820117997 0.31677992835137742 0 0.42161023666869668 0.39493916313643851 0 0.4409427642593301 0.35743108089689513 0 0.40076539126862748 0.34589349467022118 0 0.4409427642593301 0.35743108089689513 0 0.41914690343363781 0.30688979866601612 0 0.40076539126862748 0.34589349467022118 0 0.41914690343363781 0.30688979866601612 0 0.40076539126862748 0.34589349467022118 0 0.36575549820117997 0.31677992835137742 0 0.40076539126862748 0.34589349467022118 0 0.36575549820117997 0.31677992835137742 0 0.33277555741076909 0.36432196682010132 0 0.38083244760691543 0.38531983672244652 0 0.40076539126862748 0.34589349467022118 0 0.33277555741076909 0.36432196682010132 0 0.36575549820117997 0.31677992835137742 0 0.32752639306529541 0.32610012995269699 0 0.33277555741076909 0.36432196682010132 0 0.32752639306529541 0.32610012995269699 0 0.33277555741076909 0.36432196682010132 0 0.29644548887253103 0.34914008784168082 0 0.33758650185219202 0.23837101504325639 0 0.3786248352540974 0.27082301512024259 0 0.33402499257867951 0.28911035184473982 0 0.3786248352540974 0.27082301512024259 0 0.36575549820117997 0.31677992835137742 0 0.33402499257867951 0.28911035184473982 0 0.36575549820117997 0.31677992835137742 0 0.32752639306529541 0.32610012995269699 0 0.33402499257867951 0.28911035184473982 0 0.32752639306529541 0.32610012995269699 0 0.33402499257867951 0.28911035184473982 0 0.29348325746214782 0.31350119524708198 0 0.33758650185219202 0.23837101504325639 0 0.33402499257867951 0.28911035184473982 0 0.29132859388405002 0.27203693976649962 0 0.33402499257867951 0.28911035184473982 0 0.29132859388405002 0.27203693976649962 0 0.29348325746214782 0.31350119524708198 0 0.29132859388405002 0.27203693976649962 0 0.29348325746214782 0.31350119524708198 0 0.24432083401701241 0.3006253385567515 0 0.29132859388405002 0.27203693976649962 0 0.25195515620380449 0.25883339815888678 0 0.24432083401701241 0.3006253385567515 0 0.28040350263641872 0.23054717217092141 0 0.29132859388405002 0.27203693976649962 0 0.25195515620380449 0.25883339815888678 0 0.33277555741076909 0.36432196682010132 0 0.29644548887253103 0.34914008784168082 0 0.27866744612395528 0.38416094670951489 0 0.32752639306529541 0.32610012995269699 0 0.29644548887253103 0.34914008784168082 0 0.29348325746214782 0.31350119524708198 0 0.29644548887253103 0.34914008784168082 0 0.29348325746214782 0.31350119524708198 0 0.25966125648670141 0.34351016742083729 0 0.29348325746214782 0.31350119524708198 0 0.25966125648670141 0.34351016742083729 0 0.24432083401701241 0.3006253385567515 0 0.29644548887253103 0.34914008784168082 0 0.25966125648670141 0.34351016742083729 0 0.27866744612395528 0.38416094670951489 0 0.25966125648670141 0.34351016742083729 0 0.27866744612395528 0.38416094670951489 0 0.22033343844674469 0.36963382230740238 0 0.27866744612395528 0.38416094670951489 0 0.29124338931648802 0.43334555462578611 0 0.24049127783545701 0.41270748208749802 0 0.29124338931648802 0.43334555462578611 0 0.25982634974572738 0.46097799597715272 0 0.24049127783545701 0.41270748208749802 0 0.27866744612395528 0.38416094670951489 0 0.29124338931648802 0.43334555462578611 0 0.31778888742534622 0.40581751814196781 0 0.33277555741076909 0.36432196682010132 0 0.27866744612395528 0.38416094670951489 0 0.31778888742534622 0.40581751814196781 0 0.33277555741076909 0.36432196682010132 0 0.31778888742534622 0.40581751814196781 0 0.35221190152536241 0.40457127605439203 0 0.31778888742534622 0.40581751814196781 0 0.35221190152536241 0.40457127605439203 0 0.34258405725730701 0.4444034294386992 0 0.29124338931648802 0.43334555462578611 0 0.31778888742534622 0.40581751814196781 0 0.34258405725730701 0.4444034294386992 0 0.38707855792647411 0.42299362914874578 0 0.35221190152536241 0.40457127605439203 0 0.34258405725730701 0.4444034294386992 0 0.38083244760691543 0.38531983672244652 0 0.38707855792647411 0.42299362914874578 0 0.35221190152536241 0.40457127605439203 0 0.38083244760691543 0.38531983672244652 0 0.33277555741076909 0.36432196682010132 0 0.35221190152536241 0.40457127605439203 0 0.3908716102680424 0.47010282357248828 0 0.35024835142131061 0.48654922671676981 0 0.38244435121258652 0.51653317813019495 0 0.3908716102680424 0.47010282357248828 0 0.35024835142131061 0.48654922671676981 0 0.34258405725730701 0.4444034294386992 0 0.38707855792647411 0.42299362914874578 0 0.3908716102680424 0.47010282357248828 0 0.34258405725730701 0.4444034294386992 0 0.29124338931648802 0.43334555462578611 0 0.34258405725730701 0.4444034294386992 0 0.31068898841644388 0.47541502461811092 0 0.35024835142131061 0.48654922671676981 0 0.31068898841644388 0.47541502461811092 0 0.33190227185843768 0.52715113583864037 0 0.35024835142131061 0.48654922671676981 0 0.34258405725730701 0.4444034294386992 0 0.31068898841644388 0.47541502461811092 0 0.31068898841644388 0.47541502461811092 0 0.25982634974572738 0.46097799597715272 0 0.28307294598219601 0.50789252727458634 0 0.29124338931648802 0.43334555462578611 0 0.31068898841644388 0.47541502461811092 0 0.25982634974572738 0.46097799597715272 0 0.25982634974572738 0.46097799597715272 0 0.23975172658309729 0.49475499200540818 0 0.28307294598219601 0.50789252727458634 0 0.23975172658309729 0.49475499200540818 0 0.19604738184454831 0.47787523520405789 0 0.22278230690790279 0.44824268025881547 0 0.19604738184454831 0.47787523520405789 0 0.22278230690790279 0.44824268025881547 0 0.191953871957803 0.42546416763755879 0 0.25982634974572738 0.46097799597715272 0 0.22278230690790279 0.44824268025881547 0 0.24049127783545701 0.41270748208749802 0 0.25982634974572738 0.46097799597715272 0 0.23975172658309729 0.49475499200540818 0 0.22278230690790279 0.44824268025881547 0 0.27866744612395528 0.38416094670951489 0 0.24049127783545701 0.41270748208749802 0 0.22033343844674469 0.36963382230740238 0 0.191953871957803 0.42546416763755879 0 0.1650278706801647 0.38791388161335733 0 0.22033343844674469 0.36963382230740238 0 0.24049127783545701 0.41270748208749802 0 0.191953871957803 0.42546416763755879 0 0.22033343844674469 0.36963382230740238 0 0.22278230690790279 0.44824268025881547 0 0.24049127783545701 0.41270748208749802 0 0.191953871957803 0.42546416763755879 0 0.191953871957803 0.42546416763755879 0 0.13773355295499351 0.42497777642586831 0 0.15801167086041079 0.46008690540259539 0 0.191953871957803 0.42546416763755879 0 0.1650278706801647 0.38791388161335733 0 0.13773355295499351 0.42497777642586831 0 0.1650278706801647 0.38791388161335733 0 0.13773355295499351 0.42497777642586831 0 0.1117088112799664 0.38831403004970022 0 0.13773355295499351 0.42497777642586831 0 0.15801167086041079 0.46008690540259539 0 0.113541300460994 0.46208784312094731 0 0.15801167086041079 0.46008690540259539 0 0.113541300460994 0.46208784312094731 0 0.1216098864341134 0.50637075089503902 0 0.15801167086041079 0.46008690540259539 0 0.1216098864341134 0.50637075089503902 0 0.16618607197337229 0.50652878253548905 0 0.19604738184454831 0.47787523520405789 0 0.15801167086041079 0.46008690540259539 0 0.16618607197337229 0.50652878253548905 0 0.19604738184454831 0.47787523520405789 0 0.191953871957803 0.42546416763755879 0 0.15801167086041079 0.46008690540259539 0 0.25195515620380449 0.25883339815888678 0 0.21049769590865089 0.26857363548218488 0 0.24432083401701241 0.3006253385567515 0 0.21049769590865089 0.26857363548218488 0 0.24432083401701241 0.3006253385567515 0 0.19670163708476801 0.31472518408333222 0 0.21049769590865089 0.26857363548218488 0 0.19670163708476801 0.31472518408333222 0 0.168349569971391 0.28054490850913671 0 0.19670163708476801 0.31472518408333222 0 0.22615676742807109 0.33458786033114157 0 0.18434624290945251 0.35208838264196463 0 0.24432083401701241 0.3006253385567515 0 0.19670163708476801 0.31472518408333222 0 0.22615676742807109 0.33458786033114157 0 0.25966125648670141 0.34351016742083729 0 0.24432083401701241 0.3006253385567515 0 0.22615676742807109 0.33458786033114157 0 0.25966125648670141 0.34351016742083729 0 0.22615676742807109 0.33458786033114157 0 0.22033343844674469 0.36963382230740238 0 0.22615676742807109 0.33458786033114157 0 0.22033343844674469 0.36963382230740238 0 0.18434624290945251 0.35208838264196463 0 0.1650278706801647 0.38791388161335733 0 0.22033343844674469 0.36963382230740238 0 0.18434624290945251 0.35208838264196463 0 0.1650278706801647 0.38791388161335733 0 0.18434624290945251 0.35208838264196463 0 0.14223753364722069 0.3341983344262433 0 0.1650278706801647 0.38791388161335733 0 0.14223753364722069 0.3341983344262433 0 0.1117088112799664 0.38831403004970022 0 0.19670163708476801 0.31472518408333222 0 0.18434624290945251 0.35208838264196463 0 0.14223753364722069 0.3341983344262433 0 0.19670163708476801 0.31472518408333222 0 0.14223753364722069 0.3341983344262433 0 0.168349569971391 0.28054490850913671 0 0.14223753364722069 0.3341983344262433 0 0.168349569971391 0.28054490850913671 0 0.1247745017231483 0.27198077544791172 0 0.14377654328998779 0.2442024734791064 0 0.168349569971391 0.28054490850913671 0 0.1247745017231483 0.27198077544791172 0 0.17933913398461551 0.2350063570234002 0 0.21049769590865089 0.26857363548218488 0 0.168349569971391 0.28054490850913671 0 0.17933913398461551 0.2350063570234002 0 0.14377654328998779 0.2442024734791064 0 0.168349569971391 0.28054490850913671 0 0.095326043202144745 0.24554465089224409 0 0.093851963071650835 0.30582068233324772 0 0.049706944316556423 0.27522722923869108 0 0.095326043202144745 0.24554465089224409 0 0.14377654328998779 0.2442024734791064 0 0.1247745017231483 0.27198077544791172 0 0.095326043202144745 0.24554465089224409 0 0.1247745017231483 0.27198077544791172 0 0.093851963071650835 0.30582068233324772 0 0.14223753364722069 0.3341983344262433 0 0.1247745017231483 0.27198077544791172 0 0.093851963071650835 0.30582068233324772 0 0.093851963071650835 0.30582068233324772 0 0.046389130980076937 0.32668781832131749 0 0.049706944316556423 0.27522722923869108 0 0.093851963071650835 0.30582068233324772 0 0.087545339447545459 0.35122518864182262 0 0.046389130980076937 0.32668781832131749 0 0.14223753364722069 0.3341983344262433 0 0.093851963071650835 0.30582068233324772 0 0.087545339447545459 0.35122518864182262 0 0.14223753364722069 0.3341983344262433 0 0.087545339447545459 0.35122518864182262 0 0.1117088112799664 0.38831403004970022 0 0.087545339447545459 0.35122518864182262 0 0.1117088112799664 0.38831403004970022 0 0.050583896093752537 0.38543522283434112 0 0.087545339447545459 0.35122518864182262 0 0.046389130980076937 0.32668781832131749 0 0.050583896093752537 0.38543522283434112 0 0 0.35000000000145642 0 0.046389130980076937 0.32668781832131749 0 0.050583896093752537 0.38543522283434112 0 0 0.35000000000145642 0 0.046389130980076937 0.32668781832131749 0 0 0.30000000000124832 0 0.046389130980076937 0.32668781832131749 0 0 0.30000000000124832 0 0.049706944316556423 0.27522722923869108 0 0 0.30000000000124832 0 0 0.25000000000104028 0 0.049706944316556423 0.27522722923869108 0 0.044081577119474857 0.2271058242433576 0 0 0.25000000000104028 0 0.049706944316556423 0.27522722923869108 0 0.068743045408989428 0.48853989837882689 0 0.113541300460994 0.46208784312094731 0 0.078358742472063481 0.43365249433908948 0 0.068743045408989428 0.48853989837882689 0 0.113541300460994 0.46208784312094731 0 0.1216098864341134 0.50637075089503902 0 0.13773355295499351 0.42497777642586831 0 0.113541300460994 0.46208784312094731 0 0.078358742472063481 0.43365249433908948 0 0.13773355295499351 0.42497777642586831 0 0.1117088112799664 0.38831403004970022 0 0.078358742472063481 0.43365249433908948 0 0.1117088112799664 0.38831403004970022 0 0.078358742472063481 0.43365249433908948 0 0.050583896093752537 0.38543522283434112 0 0.078358742472063481 0.43365249433908948 0 0.035463093262830522 0.42673416072819947 0 0.050583896093752537 0.38543522283434112 0 0 0.35000000000145642 0 0.050583896093752537 0.38543522283434112 0 0 0.40000000000166441 0 0.035463093262830522 0.42673416072819947 0 0.050583896093752537 0.38543522283434112 0 0 0.40000000000166441 0 0.035463093262830522 0.42673416072819947 0 0 0.40000000000166441 0 0 0.45000000000187229 0 0.035463093262830522 0.42673416072819947 0 0 0.45000000000187229 0 0.033550201249889847 0.46247875832467239 0 0.068743045408989428 0.48853989837882689 0 0.033550201249889847 0.46247875832467239 0 0 0.50000000000205869 0 0.068743045408989428 0.48853989837882689 0 0.078358742472063481 0.43365249433908948 0 0.033550201249889847 0.46247875832467239 0 0.078358742472063481 0.43365249433908948 0 0.035463093262830522 0.42673416072819947 0 0.033550201249889847 0.46247875832467239 0 0 0.45000000000187229 0 0.033550201249889847 0.46247875832467239 0 0 0.50000000000205869 0 0.068743045408989428 0.48853989837882689 0 0 0.50000000000205869 0 0.044576108720083309 0.53509043209532614 0 0 0.50000000000205869 0 0 0.55000000000173355 0 0.044576108720083309 0.53509043209532614 0 0 0.55000000000173355 0 0.044576108720083309 0.53509043209532614 0 0.034381862692950467 0.57372682250960894 0 0.044576108720083309 0.53509043209532614 0 0.077693244765132896 0.56932317963405099 0 0.034381862692950467 0.57372682250960894 0 0.068743045408989428 0.48853989837882689 0 0.044576108720083309 0.53509043209532614 0 0.085622222639554768 0.53333248912060549 0 0.068743045408989428 0.48853989837882689 0 0.085622222639554768 0.53333248912060549 0 0.1216098864341134 0.50637075089503902 0 0.044576108720083309 0.53509043209532614 0 0.085622222639554768 0.53333248912060549 0 0.077693244765132896 0.56932317963405099 0 0.085622222639554768 0.53333248912060549 0 0.1154888278694548 0.56733818459978413 0 0.077693244765132896 0.56932317963405099 0 0.085622222639554768 0.53333248912060549 0 0.1216098864341134 0.50637075089503902 0 0.1154888278694548 0.56733818459978413 0 0.1024350934457823 0.60772393977513839 0 0.1154888278694548 0.56733818459978413 0 0.077693244765132896 0.56932317963405099 0 0.1024350934457823 0.60772393977513839 0 0.050069554451969707 0.61308520079857043 0 0.086179601630648681 0.64647209519980475 0 0.1024350934457823 0.60772393977513839 0 0.077693244765132896 0.56932317963405099 0 0.050069554451969707 0.61308520079857043 0 0.077693244765132896 0.56932317963405099 0 0.050069554451969707 0.61308520079857043 0 0.034381862692950467 0.57372682250960894 0 0 0.55000000000173355 0 0.034381862692950467 0.57372682250960894 0 0 0.60000000000138687 0 0.050069554451969707 0.61308520079857043 0 0 0.60000000000138687 0 0 0.65000000000104008 0 0.050069554451969707 0.61308520079857043 0 0.034381862692950467 0.57372682250960894 0 0 0.60000000000138687 0 0 0.65000000000104008 0 0.046634677244967337 0.671418230738282 0 0 0.7000000000006934 0 0.050069554451969707 0.61308520079857043 0 0.046634677244967337 0.671418230738282 0 0.086179601630648681 0.64647209519980475 0 0.050069554451969707 0.61308520079857043 0 0 0.65000000000104008 0 0.046634677244967337 0.671418230738282 0 0 0.7000000000006934 0 0.049706944316475897 0.72477277076253799 0 0 0.75000000000034661 0 0.046634677244967337 0.671418230738282 0 0 0.7000000000006934 0 0.049706944316475897 0.72477277076253799 0 0.049706944316475897 0.72477277076253799 0 0 0.75000000000034661 0 0.04408157711937423 0.7728941757575627 0 0.049706944316475897 0.72477277076253799 0 0.1020579365089687 0.69352219419301997 0 0.090953281884486245 0.7564451946902494 0 0.1020579365089687 0.69352219419301997 0 0.1215415378367805 0.72939333680004137 0 0.090953281884486245 0.7564451946902494 0 0.046634677244967337 0.671418230738282 0 0.049706944316475897 0.72477277076253799 0 0.1020579365089687 0.69352219419301997 0 0.1215415378367805 0.72939333680004137 0 0.090953281884486245 0.7564451946902494 0 0.14335651144331049 0.75565258250209677 0 0.046634677244967337 0.671418230738282 0 0.1020579365089687 0.69352219419301997 0 0.086179601630648681 0.64647209519980475 0 0.1020579365089687 0.69352219419301997 0 0.086179601630648681 0.64647209519980475 0 0.1241190223511371 0.64391885572885044 0 0.1024350934457823 0.60772393977513839 0 0.086179601630648681 0.64647209519980475 0 0.1241190223511371 0.64391885572885044 0 0.1020579365089687 0.69352219419301997 0 0.1241190223511371 0.64391885572885044 0 0.16500388252850301 0.66612077714085194 0 0.1241190223511371 0.64391885572885044 0 0.16500388252850301 0.66612077714085194 0 0.15720202157091859 0.60665697304410315 0 0.16500388252850301 0.66612077714085194 0 0.19914261668318661 0.62286739485272158 0 0.15720202157091859 0.60665697304410315 0 0.1020579365089687 0.69352219419301997 0 0.16500388252850301 0.66612077714085194 0 0.15332765547575641 0.71200081858233666 0 0.1215415378367805 0.72939333680004137 0 0.15332765547575641 0.71200081858233666 0 0.14335651144331049 0.75565258250209677 0 0.1020579365089687 0.69352219419301997 0 0.1215415378367805 0.72939333680004137 0 0.15332765547575641 0.71200081858233666 0 0.16500388252850301 0.66612077714085194 0 0.15332765547575641 0.71200081858233666 0 0.19068556247388771 0.71028988922845504 0 0.15332765547575641 0.71200081858233666 0 0.14335651144331049 0.75565258250209677 0 0.18269480424590959 0.75905448272264375 0 0.15332765547575641 0.71200081858233666 0 0.19068556247388771 0.71028988922845504 0 0.18269480424590959 0.75905448272264375 0 0.19068556247388771 0.71028988922845504 0 0.2248999640082178 0.72584299459689172 0 0.18269480424590959 0.75905448272264375 0 0.19068556247388771 0.71028988922845504 0 0.2248999640082178 0.72584299459689172 0 0.2236846579037573 0.67380363126050236 0 0.2248999640082178 0.72584299459689172 0 0.2236846579037573 0.67380363126050236 0 0.26439878998046262 0.7048065392091396 0 0.2248999640082178 0.72584299459689172 0 0.22556077506376701 0.77837424984191617 0 0.25676291524611189 0.7436741304886243 0 0.2248999640082178 0.72584299459689172 0 0.25676291524611189 0.7436741304886243 0 0.26439878998046262 0.7048065392091396 0 0.16500388252850301 0.66612077714085194 0 0.2236846579037573 0.67380363126050236 0 0.19914261668318661 0.62286739485272158 0 0.16500388252850301 0.66612077714085194 0 0.19068556247388771 0.71028988922845504 0 0.2236846579037573 0.67380363126050236 0 0.2236846579037573 0.67380363126050236 0 0.2459498854893499 0.63248470766216769 0 0.19914261668318661 0.62286739485272158 0 0.2236846579037573 0.67380363126050236 0 0.2459498854893499 0.63248470766216769 0 0.27820712747429932 0.65530134213254643 0 0.2459498854893499 0.63248470766216769 0 0.19914261668318661 0.62286739485272158 0 0.22549374774072969 0.58452645269293457 0 0.2459498854893499 0.63248470766216769 0 0.22549374774072969 0.58452645269293457 0 0.26573297623774761 0.59828298563722948 0 0.19914261668318661 0.62286739485272158 0 0.22549374774072969 0.58452645269293457 0 0.18381867841758909 0.57774125163628387 0 0.22549374774072969 0.58452645269293457 0 0.20050006573841939 0.53248514016039872 0 0.18381867841758909 0.57774125163628387 0 0.22549374774072969 0.58452645269293457 0 0.25115337790845271 0.54719303014923271 0 0.26573297623774761 0.59828298563722948 0 0.22549374774072969 0.58452645269293457 0 0.20050006573841939 0.53248514016039872 0 0.25115337790845271 0.54719303014923271 0 0.23975172658309729 0.49475499200540818 0 0.20050006573841939 0.53248514016039872 0 0.25115337790845271 0.54719303014923271 0 0.19604738184454831 0.47787523520405789 0 0.20050006573841939 0.53248514016039872 0 0.16618607197337229 0.50652878253548905 0 0.23975172658309729 0.49475499200540818 0 0.19604738184454831 0.47787523520405789 0 0.20050006573841939 0.53248514016039872 0 0.20050006573841939 0.53248514016039872 0 0.14934928745814749 0.55042914607228977 0 0.18381867841758909 0.57774125163628387 0 0.20050006573841939 0.53248514016039872 0 0.16618607197337229 0.50652878253548905 0 0.14934928745814749 0.55042914607228977 0 0.1216098864341134 0.50637075089503902 0 0.16618607197337229 0.50652878253548905 0 0.14934928745814749 0.55042914607228977 0 0.1216098864341134 0.50637075089503902 0 0.1154888278694548 0.56733818459978413 0 0.14934928745814749 0.55042914607228977 0 0.1154888278694548 0.56733818459978413 0 0.14934928745814749 0.55042914607228977 0 0.15720202157091859 0.60665697304410315 0 0.1024350934457823 0.60772393977513839 0 0.1154888278694548 0.56733818459978413 0 0.15720202157091859 0.60665697304410315 0 0.1024350934457823 0.60772393977513839 0 0.1241190223511371 0.64391885572885044 0 0.15720202157091859 0.60665697304410315 0 0.19914261668318661 0.62286739485272158 0 0.15720202157091859 0.60665697304410315 0 0.18381867841758909 0.57774125163628387 0 0.14934928745814749 0.55042914607228977 0 0.15720202157091859 0.60665697304410315 0 0.18381867841758909 0.57774125163628387 0 0.10000000000041601 1 0 0.10266856499240549 0.95548163909968886 0 0.15000000000062411 1 0 0.10266856499240549 0.95548163909968886 0 0.053064897599294662 0.95186845269532028 0 0.083411279318375747 0.91030024466934134 0 0.10000000000041601 1 0 0.050000000000207989 1 0 0.053064897599294662 0.95186845269532028 0 0.10000000000041601 1 0 0.10266856499240549 0.95548163909968886 0 0.053064897599294662 0.95186845269532028 0 0.050000000000207989 1 0 0.025766224399875661 0.97546711317377799 0 0.053064897599294662 0.95186845269532028 0 0.050000000000207989 1 0 0 1 0 0.025766224399875661 0.97546711317377799 0 0 1 0 0.025766224399875661 0.97546711317377799 0 0 0.94999999999979179 0 0.025766224399875661 0.97546711317377799 0 0 0.94999999999979179 0 0.053064897599294662 0.95186845269532028 0 0 0.94999999999979179 0 0.053064897599294662 0.95186845269532028 0 0.0443105827531413 0.89858748162559932 0 0.053064897599294662 0.95186845269532028 0 0.0443105827531413 0.89858748162559932 0 0.083411279318375747 0.91030024466934134 0 0 0.94999999999979179 0 0 0.89999999999958358 0 0.0443105827531413 0.89858748162559932 0 0 0.89999999999958358 0 0.0443105827531413 0.89858748162559932 0 0 0.84999999999965292 0 0.0443105827531413 0.89858748162559932 0 0.083411279318375747 0.91030024466934134 0 0.065374659239661639 0.8551091961254178 0 0.083411279318375747 0.91030024466934134 0 0.10562472963403439 0.87143394428979881 0 0.065374659239661639 0.8551091961254178 0 0.10266856499240549 0.95548163909968886 0 0.083411279318375747 0.91030024466934134 0 0.1241151115713819 0.9045666525468371 0 0.10266856499240549 0.95548163909968886 0 0.1241151115713819 0.9045666525468371 0 0.14617343800780541 0.93808063414349496 0 0.1241151115713819 0.9045666525468371 0 0.10562472963403439 0.87143394428979881 0 0.14474682429600511 0.85524784522713515 0 0.083411279318375747 0.91030024466934134 0 0.1241151115713819 0.9045666525468371 0 0.10562472963403439 0.87143394428979881 0 0.10562472963403439 0.87143394428979881 0 0.1074251789111534 0.83564394292147814 0 0.14474682429600511 0.85524784522713515 0 0.1074251789111534 0.83564394292147814 0 0.065374659239661639 0.8551091961254178 0 0.083105206071452636 0.79992298667296435 0 0.10562472963403439 0.87143394428979881 0 0.1074251789111534 0.83564394292147814 0 0.065374659239661639 0.8551091961254178 0 0.065374659239661639 0.8551091961254178 0 0 0.84999999999965292 0 0.038512288486097702 0.8155852717111195 0 0.0443105827531413 0.89858748162559932 0 0.065374659239661639 0.8551091961254178 0 0 0.84999999999965292 0 0 0.84999999999965292 0 0.038512288486097702 0.8155852717111195 0 0 0.79999999999999982 0 0.065374659239661639 0.8551091961254178 0 0.038512288486097702 0.8155852717111195 0 0.083105206071452636 0.79992298667296435 0 0.038512288486097702 0.8155852717111195 0 0.04408157711937423 0.7728941757575627 0 0.083105206071452636 0.79992298667296435 0 0.038512288486097702 0.8155852717111195 0 0 0.79999999999999982 0 0.04408157711937423 0.7728941757575627 0 0 0.79999999999999982 0 0 0.75000000000034661 0 0.04408157711937423 0.7728941757575627 0 0.049706944316475897 0.72477277076253799 0 0.04408157711937423 0.7728941757575627 0 0.090953281884486245 0.7564451946902494 0 0.04408157711937423 0.7728941757575627 0 0.090953281884486245 0.7564451946902494 0 0.083105206071452636 0.79992298667296435 0 0.1074251789111534 0.83564394292147814 0 0.083105206071452636 0.79992298667296435 0 0.1382744753146134 0.79650574229207483 0 0.090953281884486245 0.7564451946902494 0 0.083105206071452636 0.79992298667296435 0 0.1382744753146134 0.79650574229207483 0 0.090953281884486245 0.7564451946902494 0 0.14335651144331049 0.75565258250209677 0 0.1382744753146134 0.79650574229207483 0 0.14335651144331049 0.75565258250209677 0 0.1382744753146134 0.79650574229207483 0 0.18269480424590959 0.75905448272264375 0 0.1382744753146134 0.79650574229207483 0 0.18269480424590959 0.75905448272264375 0 0.17777405986036951 0.81832336108265358 0 0.2248999640082178 0.72584299459689172 0 0.18269480424590959 0.75905448272264375 0 0.22556077506376701 0.77837424984191617 0 0.22556077506376701 0.77837424984191617 0 0.21858834311891909 0.81980263716112767 0 0.26104540868854792 0.81401944968719064 0 0.22556077506376701 0.77837424984191617 0 0.21858834311891909 0.81980263716112767 0 0.17777405986036951 0.81832336108265358 0 0.18269480424590959 0.75905448272264375 0 0.22556077506376701 0.77837424984191617 0 0.17777405986036951 0.81832336108265358 0 0.21858834311891909 0.81980263716112767 0 0.19741632902693801 0.86755867406447229 0 0.17777405986036951 0.81832336108265358 0 0.21858834311891909 0.81980263716112767 0 0.2401283238295133 0.85648409884788523 0 0.26104540868854792 0.81401944968719064 0 0.21858834311891909 0.81980263716112767 0 0.2401283238295133 0.85648409884788523 0 0.19741632902693801 0.86755867406447229 0 0.19741632902693801 0.86755867406447229 0 0.17777405986036951 0.81832336108265358 0 0.14474682429600511 0.85524784522713515 0 0.19741632902693801 0.86755867406447229 0 0.14474682429600511 0.85524784522713515 0 0.16206583317966519 0.89685560785156404 0 0.1382744753146134 0.79650574229207483 0 0.17777405986036951 0.81832336108265358 0 0.14474682429600511 0.85524784522713515 0 0.1074251789111534 0.83564394292147814 0 0.1382744753146134 0.79650574229207483 0 0.14474682429600511 0.85524784522713515 0 0.1241151115713819 0.9045666525468371 0 0.14474682429600511 0.85524784522713515 0 0.16206583317966519 0.89685560785156404 0 0.1241151115713819 0.9045666525468371 0 0.16206583317966519 0.89685560785156404 0 0.14617343800780541 0.93808063414349496 0 0.16206583317966519 0.89685560785156404 0 0.19901705110390991 0.9175543425573498 0 0.14617343800780541 0.93808063414349496 0 0.19741632902693801 0.86755867406447229 0 0.16206583317966519 0.89685560785156404 0 0.19901705110390991 0.9175543425573498 0 0.19741632902693801 0.86755867406447229 0 0.24536017905392571 0.90704567837671446 0 0.19901705110390991 0.9175543425573498 0 0.2401283238295133 0.85648409884788523 0 0.19741632902693801 0.86755867406447229 0 0.24536017905392571 0.90704567837671446 0 0.24536017905392571 0.90704567837671446 0 0.19901705110390991 0.9175543425573498 0 0.22850979588452081 0.95594428570238643 0 0.19901705110390991 0.9175543425573498 0 0.22850979588452081 0.95594428570238643 0 0.18474005699953849 0.96231585248064622 0 0.24536017905392571 0.90704567837671446 0 0.22850979588452081 0.95594428570238643 0 0.27609987656793722 0.94991445621608572 0 0.22850979588452081 0.95594428570238643 0 0.20000000000083221 1 0 0.25000000000104028 1 0 0.22850979588452081 0.95594428570238643 0 0.20000000000083221 1 0 0.18474005699953849 0.96231585248064622 0 0.20000000000083221 1 0 0.18474005699953849 0.96231585248064622 0 0.15000000000062411 1 0 0.19901705110390991 0.9175543425573498 0 0.18474005699953849 0.96231585248064622 0 0.14617343800780541 0.93808063414349496 0 0.18474005699953849 0.96231585248064622 0 0.14617343800780541 0.93808063414349496 0 0.15000000000062411 1 0 0.10266856499240549 0.95548163909968886 0 0.14617343800780541 0.93808063414349496 0 0.15000000000062411 1 0 0.35000000000145642 1 0 0.36184234618600131 0.96443954459096326 0 0.32544832635163229 0.95485394099568932 0 0.35000000000145642 1 0 0.36184234618600131 0.96443954459096326 0 0.40000000000166441 1 0 0.36184234618600131 0.96443954459096326 0 0.32544832635163229 0.95485394099568932 0 0.35752321586431363 0.9185439911803448 0 0.36184234618600131 0.96443954459096326 0 0.35752321586431363 0.9185439911803448 0 0.39641108128798319 0.94356127926187128 0 0.35000000000145642 1 0 0.32544832635163229 0.95485394099568932 0 0.30000000000124832 1 0 0.30000000000124832 1 0 0.25000000000104028 1 0 0.27609987656793722 0.94991445621608572 0 0.22850979588452081 0.95594428570238643 0 0.25000000000104028 1 0 0.27609987656793722 0.94991445621608572 0 0.32544832635163229 0.95485394099568932 0 0.30000000000124832 1 0 0.27609987656793722 0.94991445621608572 0 0.32544832635163229 0.95485394099568932 0 0.27609987656793722 0.94991445621608572 0 0.30864387279288652 0.89906554525974958 0 0.24536017905392571 0.90704567837671446 0 0.27270076654418179 0.87751467830216623 0 0.30864387279288652 0.89906554525974958 0 0.24536017905392571 0.90704567837671446 0 0.27609987656793722 0.94991445621608572 0 0.30864387279288652 0.89906554525974958 0 0.2401283238295133 0.85648409884788523 0 0.24536017905392571 0.90704567837671446 0 0.27270076654418179 0.87751467830216623 0 0.30864387279288652 0.89906554525974958 0 0.35752321586431363 0.9185439911803448 0 0.35864759629805099 0.87963482415279515 0 0.32544832635163229 0.95485394099568932 0 0.30864387279288652 0.89906554525974958 0 0.35752321586431363 0.9185439911803448 0 0.35752321586431363 0.9185439911803448 0 0.35864759629805099 0.87963482415279515 0 0.39767323751400468 0.89584229130535065 0 0.35864759629805099 0.87963482415279515 0 0.33403534827021109 0.84402799729020661 0 0.39536230704883951 0.84069429572832477 0 0.33403534827021109 0.84402799729020661 0 0.35642984951668422 0.80994399665655703 0 0.39536230704883951 0.84069429572832477 0 0.33403534827021109 0.84402799729020661 0 0.30857225866488791 0.81101973481716805 0 0.35642984951668422 0.80994399665655703 0 0.30864387279288652 0.89906554525974958 0 0.35864759629805099 0.87963482415279515 0 0.33403534827021109 0.84402799729020661 0 0.30864387279288652 0.89906554525974958 0 0.33403534827021109 0.84402799729020661 0 0.29209212897034281 0.84715728365233667 0 0.27270076654418179 0.87751467830216623 0 0.30864387279288652 0.89906554525974958 0 0.29209212897034281 0.84715728365233667 0 0.2401283238295133 0.85648409884788523 0 0.27270076654418179 0.87751467830216623 0 0.29209212897034281 0.84715728365233667 0 0.2401283238295133 0.85648409884788523 0 0.29209212897034281 0.84715728365233667 0 0.26104540868854792 0.81401944968719064 0 0.29209212897034281 0.84715728365233667 0 0.26104540868854792 0.81401944968719064 0 0.30857225866488791 0.81101973481716805 0 0.33403534827021109 0.84402799729020661 0 0.29209212897034281 0.84715728365233667 0 0.30857225866488791 0.81101973481716805 0 0.26104540868854792 0.81401944968719064 0 0.30857225866488791 0.81101973481716805 0 0.2792923945214143 0.77665808831789485 0 0.30857225866488791 0.81101973481716805 0 0.2792923945214143 0.77665808831789485 0 0.33123028043633618 0.77629643437932982 0 0.22556077506376701 0.77837424984191617 0 0.26104540868854792 0.81401944968719064 0 0.2792923945214143 0.77665808831789485 0 0.2792923945214143 0.77665808831789485 0 0.25676291524611189 0.7436741304886243 0 0.29904318922293632 0.74132814928635593 0 0.22556077506376701 0.77837424984191617 0 0.2792923945214143 0.77665808831789485 0 0.25676291524611189 0.7436741304886243 0 0.2792923945214143 0.77665808831789485 0 0.33123028043633618 0.77629643437932982 0 0.29904318922293632 0.74132814928635593 0 0.33123028043633618 0.77629643437932982 0 0.29904318922293632 0.74132814928635593 0 0.35415581127540569 0.73730480045900215 0 0.30857225866488791 0.81101973481716805 0 0.33123028043633618 0.77629643437932982 0 0.35642984951668422 0.80994399665655703 0 0.33123028043633618 0.77629643437932982 0 0.35642984951668422 0.80994399665655703 0 0.38586766253264881 0.78219501014812498 0 0.33123028043633618 0.77629643437932982 0 0.38586766253264881 0.78219501014812498 0 0.35415581127540569 0.73730480045900215 0 0.38586766253264881 0.78219501014812498 0 0.42676259796334498 0.76772545931379299 0 0.40326160981139969 0.73346192995102844 0 0.38586766253264881 0.78219501014812498 0 0.35415581127540569 0.73730480045900215 0 0.40326160981139969 0.73346192995102844 0 0.38586766253264881 0.78219501014812498 0 0.42609163930740518 0.80361684430568059 0 0.39536230704883951 0.84069429572832477 0 0.35642984951668422 0.80994399665655703 0 0.38586766253264881 0.78219501014812498 0 0.39536230704883951 0.84069429572832477 0 0.38586766253264881 0.78219501014812498 0 0.42609163930740518 0.80361684430568059 0 0.42676259796334498 0.76772545931379299 0 0.42676259796334498 0.76772545931379299 0 0.4656888918609538 0.78493261229743638 0 0.45582236402875981 0.73896743678908217 0 0.4656888918609538 0.78493261229743638 0 0.45582236402875981 0.73896743678908217 0 0.50945740445113552 0.75476055527778108 0 0.4656888918609538 0.78493261229743638 0 0.50731287292894423 0.78963574450233831 0 0.50945740445113552 0.75476055527778108 0 0.4656888918609538 0.78493261229743638 0 0.50627822638148745 0.8263979829520941 0 0.50731287292894423 0.78963574450233831 0 0.42609163930740518 0.80361684430568059 0 0.4656888918609538 0.78493261229743638 0 0.45677673713123867 0.84253684404072415 0 0.42609163930740518 0.80361684430568059 0 0.42676259796334498 0.76772545931379299 0 0.4656888918609538 0.78493261229743638 0 0.4656888918609538 0.78493261229743638 0 0.45677673713123867 0.84253684404072415 0 0.50627822638148745 0.8263979829520941 0 0.45677673713123867 0.84253684404072415 0 0.50202631463681879 0.87892870825713787 0 0.50627822638148745 0.8263979829520941 0 0.45677673713123867 0.84253684404072415 0 0.44003836461056539 0.88093474584252718 0 0.50202631463681879 0.87892870825713787 0 0.45677673713123867 0.84253684404072415 0 0.39536230704883951 0.84069429572832477 0 0.44003836461056539 0.88093474584252718 0 0.39536230704883951 0.84069429572832477 0 0.39767323751400468 0.89584229130535065 0 0.44003836461056539 0.88093474584252718 0 0.42609163930740518 0.80361684430568059 0 0.45677673713123867 0.84253684404072415 0 0.39536230704883951 0.84069429572832477 0 0.35864759629805099 0.87963482415279515 0 0.39536230704883951 0.84069429572832477 0 0.39767323751400468 0.89584229130535065 0 0.35752321586431363 0.9185439911803448 0 0.39767323751400468 0.89584229130535065 0 0.39641108128798319 0.94356127926187128 0 0.39767323751400468 0.89584229130535065 0 0.4367309254023824 0.92065556789053882 0 0.39641108128798319 0.94356127926187128 0 0.39767323751400468 0.89584229130535065 0 0.4367309254023824 0.92065556789053882 0 0.44003836461056539 0.88093474584252718 0 0.4367309254023824 0.92065556789053882 0 0.44003836461056539 0.88093474584252718 0 0.47401147028110507 0.91529957330468115 0 0.44003836461056539 0.88093474584252718 0 0.47401147028110507 0.91529957330468115 0 0.50202631463681879 0.87892870825713787 0 0.47401147028110507 0.91529957330468115 0 0.47135117303824892 0.95556877749289892 0 0.52122150208832174 0.94089974453840242 0 0.47401147028110507 0.91529957330468115 0 0.52122150208832174 0.94089974453840242 0 0.50202631463681879 0.87892870825713787 0 0.4367309254023824 0.92065556789053882 0 0.47401147028110507 0.91529957330468115 0 0.47135117303824892 0.95556877749289892 0 0.4367309254023824 0.92065556789053882 0 0.47135117303824892 0.95556877749289892 0 0.4308986359464303 0.96395712492906194 0 0.47135117303824892 0.95556877749289892 0 0.50000000000205869 1 0 0.52122150208832174 0.94089974453840242 0 0.47135117303824892 0.95556877749289892 0 0.45000000000187229 1 0 0.50000000000205869 1 0 0.47135117303824892 0.95556877749289892 0 0.45000000000187229 1 0 0.4308986359464303 0.96395712492906194 0 0.45000000000187229 1 0 0.4308986359464303 0.96395712492906194 0 0.40000000000166441 1 0 0.4308986359464303 0.96395712492906194 0 0.39641108128798319 0.94356127926187128 0 0.40000000000166441 1 0 0.4367309254023824 0.92065556789053882 0 0.4308986359464303 0.96395712492906194 0 0.39641108128798319 0.94356127926187128 0 0.36184234618600131 0.96443954459096326 0 0.39641108128798319 0.94356127926187128 0 0.40000000000166441 1 0 0.33122374654748771 0.57588941099433744 0 0.31502927232353312 0.6134992213375432 0 0.35765792684946668 0.6000687869219653 0 0.31502927232353312 0.6134992213375432 0 0.35765792684946668 0.6000687869219653 0 0.35864735590330371 0.63903383440414463 0 0.35765792684946668 0.6000687869219653 0 0.35864735590330371 0.63903383440414463 0 0.39743091024207589 0.6239520004230239 0 0.33122374654748771 0.57588941099433744 0 0.35765792684946668 0.6000687869219653 0 0.37272913873093971 0.56192925302619479 0 0.37272913873093971 0.56192925302619479 0 0.33190227185843768 0.52715113583864037 0 0.38244435121258652 0.51653317813019495 0 0.33122374654748771 0.57588941099433744 0 0.37272913873093971 0.56192925302619479 0 0.33190227185843768 0.52715113583864037 0 0.35024835142131061 0.48654922671676981 0 0.33190227185843768 0.52715113583864037 0 0.38244435121258652 0.51653317813019495 0 0.33122374654748771 0.57588941099433744 0 0.33190227185843768 0.52715113583864037 0 0.29110487519241501 0.56588143995431495 0 0.33190227185843768 0.52715113583864037 0 0.28307294598219601 0.50789252727458634 0 0.29110487519241501 0.56588143995431495 0 0.31068898841644388 0.47541502461811092 0 0.33190227185843768 0.52715113583864037 0 0.28307294598219601 0.50789252727458634 0 0.23975172658309729 0.49475499200540818 0 0.28307294598219601 0.50789252727458634 0 0.25115337790845271 0.54719303014923271 0 0.28307294598219601 0.50789252727458634 0 0.25115337790845271 0.54719303014923271 0 0.29110487519241501 0.56588143995431495 0 0.25115337790845271 0.54719303014923271 0 0.29110487519241501 0.56588143995431495 0 0.26573297623774761 0.59828298563722948 0 0.33122374654748771 0.57588941099433744 0 0.31502927232353312 0.6134992213375432 0 0.29110487519241501 0.56588143995431495 0 0.31502927232353312 0.6134992213375432 0 0.29110487519241501 0.56588143995431495 0 0.26573297623774761 0.59828298563722948 0 0.31502927232353312 0.6134992213375432 0 0.26573297623774761 0.59828298563722948 0 0.27820712747429932 0.65530134213254643 0 0.2459498854893499 0.63248470766216769 0 0.26573297623774761 0.59828298563722948 0 0.27820712747429932 0.65530134213254643 0 0.2236846579037573 0.67380363126050236 0 0.27820712747429932 0.65530134213254643 0 0.26439878998046262 0.7048065392091396 0 0.27820712747429932 0.65530134213254643 0 0.31378396441836959 0.70157213313026345 0 0.32263089806001177 0.66003674931826484 0 0.27820712747429932 0.65530134213254643 0 0.26439878998046262 0.7048065392091396 0 0.31378396441836959 0.70157213313026345 0 0.31502927232353312 0.6134992213375432 0 0.27820712747429932 0.65530134213254643 0 0.32263089806001177 0.66003674931826484 0 0.25676291524611189 0.7436741304886243 0 0.26439878998046262 0.7048065392091396 0 0.29904318922293632 0.74132814928635593 0 0.26439878998046262 0.7048065392091396 0 0.29904318922293632 0.74132814928635593 0 0.31378396441836959 0.70157213313026345 0 0.29904318922293632 0.74132814928635593 0 0.31378396441836959 0.70157213313026345 0 0.35415581127540569 0.73730480045900215 0 0.31378396441836959 0.70157213313026345 0 0.36622285152418499 0.69092437780804039 0 0.35415581127540569 0.73730480045900215 0 0.36622285152418499 0.69092437780804039 0 0.35415581127540569 0.73730480045900215 0 0.40326160981139969 0.73346192995102844 0 0.31502927232353312 0.6134992213375432 0 0.32263089806001177 0.66003674931826484 0 0.35864735590330371 0.63903383440414463 0 0.31378396441836959 0.70157213313026345 0 0.36622285152418499 0.69092437780804039 0 0.32263089806001177 0.66003674931826484 0 0.36622285152418499 0.69092437780804039 0 0.32263089806001177 0.66003674931826484 0 0.35864735590330371 0.63903383440414463 0 0.36622285152418499 0.69092437780804039 0 0.35864735590330371 0.63903383440414463 0 0.3977710372045391 0.65868194622830212 0 0.35864735590330371 0.63903383440414463 0 0.3977710372045391 0.65868194622830212 0 0.39743091024207589 0.6239520004230239 0 0.36622285152418499 0.69092437780804039 0 0.3977710372045391 0.65868194622830212 0 0.43323420005758778 0.6913544522562407 0 0.3977710372045391 0.65868194622830212 0 0.43323420005758778 0.6913544522562407 0 0.43846182030517877 0.64845797726506715 0 0.43846182030517877 0.64845797726506715 0 0.43545892161006339 0.61093128915313821 0 0.39743091024207589 0.6239520004230239 0 0.3977710372045391 0.65868194622830212 0 0.43846182030517877 0.64845797726506715 0 0.39743091024207589 0.6239520004230239 0 0.36622285152418499 0.69092437780804039 0 0.40326160981139969 0.73346192995102844 0 0.43323420005758778 0.6913544522562407 0 0.40326160981139969 0.73346192995102844 0 0.43323420005758778 0.6913544522562407 0 0.45582236402875981 0.73896743678908217 0 0.42676259796334498 0.76772545931379299 0 0.40326160981139969 0.73346192995102844 0 0.45582236402875981 0.73896743678908217 0 0.43323420005758778 0.6913544522562407 0 0.45582236402875981 0.73896743678908217 0 0.5 0.69999999999999996 0 0.45582236402875981 0.73896743678908217 0 0.5 0.69999999999999996 0 0.50945740445113552 0.75476055527778108 0 0.43323420005758778 0.6913544522562407 0 0.47913475093885149 0.66010775372412711 0 0.5 0.69999999999999996 0 0.43846182030517877 0.64845797726506715 0 0.47913475093885149 0.66010775372412711 0 0.47095389620662098 0.61892551373708504 0 0.43846182030517877 0.64845797726506715 0 0.47095389620662098 0.61892551373708504 0 0.43545892161006339 0.61093128915313821 0 0.43323420005758778 0.6913544522562407 0 0.43846182030517877 0.64845797726506715 0 0.47913475093885149 0.66010775372412711 0 0.47913475093885149 0.66010775372412711 0 0.47095389620662098 0.61892551373708504 0 0.50715858906372158 0.63295939104129484 0 0.47095389620662098 0.61892551373708504 0 0.5166924242153631 0.59825134841919447 0 0.50715858906372158 0.63295939104129484 0 0.47095389620662098 0.61892551373708504 0 0.46666084890304671 0.57634471035397938 0 0.5166924242153631 0.59825134841919447 0 0.47095389620662098 0.61892551373708504 0 0.46666084890304671 0.57634471035397938 0 0.43545892161006339 0.61093128915313821 0 0.43545892161006339 0.61093128915313821 0 0.4089290844030305 0.58728915500154233 0 0.39743091024207589 0.6239520004230239 0 0.46666084890304671 0.57634471035397938 0 0.43545892161006339 0.61093128915313821 0 0.4089290844030305 0.58728915500154233 0 0.46666084890304671 0.57634471035397938 0 0.4089290844030305 0.58728915500154233 0 0.42644501560315817 0.54603747078095544 0 0.37272913873093971 0.56192925302619479 0 0.4089290844030305 0.58728915500154233 0 0.42644501560315817 0.54603747078095544 0 0.35765792684946668 0.6000687869219653 0 0.37272913873093971 0.56192925302619479 0 0.4089290844030305 0.58728915500154233 0 0.35765792684946668 0.6000687869219653 0 0.4089290844030305 0.58728915500154233 0 0.39743091024207589 0.6239520004230239 0 0.37272913873093971 0.56192925302619479 0 0.38244435121258652 0.51653317813019495 0 0.42644501560315817 0.54603747078095544 0 0.43507373378304309 0.49699695397193322 0 0.38244435121258652 0.51653317813019495 0 0.42644501560315817 0.54603747078095544 0 0.46666084890304671 0.57634471035397938 0 0.47793794143994173 0.52940715638744962 0 0.53245488764484505 0.55078124999999989 0 0.43507373378304309 0.49699695397193322 0 0.49102375406324739 0.49123754822244059 0 0.47793794143994173 0.52940715638744962 0 0.43507373378304309 0.49699695397193322 0 0.42644501560315817 0.54603747078095544 0 0.47793794143994173 0.52940715638744962 0 0.46666084890304671 0.57634471035397938 0 0.42644501560315817 0.54603747078095544 0 0.47793794143994173 0.52940715638744962 0 0.49102375406324739 0.49123754822244059 0 0.47793794143994173 0.52940715638744962 0 0.53330375813596242 0.50827942741749099 0 0.47793794143994173 0.52940715638744962 0 0.53245488764484505 0.55078124999999989 0 0.53330375813596242 0.50827942741749099 0 0.53245488764484505 0.55078124999999989 0 0.53330375813596242 0.50827942741749099 0 0.57435499076887508 0.54267261987897775 0 0.53245488764484505 0.55078124999999989 0 0.57435499076887508 0.54267261987897775 0 0.57412547362576272 0.58273804879550706 0 0.53330375813596242 0.50827942741749099 0 0.57611405284611883 0.50165903596042916 0 0.57435499076887508 0.54267261987897775 0 0.57611405284611883 0.50165903596042916 0 0.57435499076887508 0.54267261987897775 0 0.62042975506801734 0.54295974692364424 0 0.57435499076887508 0.54267261987897775 0 0.62042975506801734 0.54295974692364424 0 0.57412547362576272 0.58273804879550706 0 0.57611405284611883 0.50165903596042916 0 0.62042975506801734 0.54295974692364424 0 0.61547661924074692 0.48539576058873962 0 0.5991018319127801 0.62925360607495295 0 0.6405463747586706 0.63290524857395714 0 0.63065402604362242 0.59661356661633302 0 0.57412547362576272 0.58273804879550706 0 0.5991018319127801 0.62925360607495295 0 0.63065402604362242 0.59661356661633302 0 0.62042975506801734 0.54295974692364424 0 0.57412547362576272 0.58273804879550706 0 0.63065402604362242 0.59661356661633302 0 0.57412547362576272 0.58273804879550706 0 0.5498280205245758 0.6290146943450976 0 0.5991018319127801 0.62925360607495295 0 0.46666084890304671 0.57634471035397938 0 0.53245488764484505 0.55078124999999989 0 0.5166924242153631 0.59825134841919447 0 0.57412547362576272 0.58273804879550706 0 0.5166924242153631 0.59825134841919447 0 0.5498280205245758 0.6290146943450976 0 0.53245488764484505 0.55078124999999989 0 0.57412547362576272 0.58273804879550706 0 0.5166924242153631 0.59825134841919447 0 0.5166924242153631 0.59825134841919447 0 0.50715858906372158 0.63295939104129484 0 0.5498280205245758 0.6290146943450976 0 0.47913475093885149 0.66010775372412711 0 0.50715858906372158 0.63295939104129484 0 0.52584555706968406 0.66664215091846768 0 0.50715858906372158 0.63295939104129484 0 0.52584555706968406 0.66664215091846768 0 0.5498280205245758 0.6290146943450976 0 0.47913475093885149 0.66010775372412711 0 0.52584555706968406 0.66664215091846768 0 0.5 0.69999999999999996 0 0.52584555706968406 0.66664215091846768 0 0.54999999999999993 0.69999999999999996 0 0.57484956128872922 0.66573805030881994 0 0.52584555706968406 0.66664215091846768 0 0.5498280205245758 0.6290146943450976 0 0.57484956128872922 0.66573805030881994 0 0.5 0.69999999999999996 0 0.55363780716230748 0.74348740161571747 0 0.50945740445113552 0.75476055527778108 0 0.52584555706968406 0.66664215091846768 0 0.5 0.69999999999999996 0 0.54999999999999993 0.69999999999999996 0 0.5 0.69999999999999996 0 0.54999999999999993 0.69999999999999996 0 0.5 0.69999999999999996 0 0.54999999999999993 0.69999999999999996 0 0.55363780716230748 0.74348740161571747 0 0.55363780716230748 0.74348740161571747 0 0.59999999999999976 0.69999999999999996 0 0.59636844454254345 0.75937156204589151 0 0.54999999999999993 0.69999999999999996 0 0.59999999999999976 0.69999999999999996 0 0.54999999999999993 0.69999999999999996 0 0.59999999999999976 0.69999999999999996 0 0.57484956128872922 0.66573805030881994 0 0.54999999999999993 0.69999999999999996 0 0.55363780716230748 0.74348740161571747 0 0.59999999999999976 0.69999999999999996 0 0.59999999999999976 0.69999999999999996 0 0.6499999999999998 0.69999999999999996 0 0.59999999999999976 0.69999999999999996 0 0.62460753523532009 0.66851202781000296 0 0.6499999999999998 0.69999999999999996 0 0.59999999999999976 0.69999999999999996 0 0.63221990677827677 0.73442891067859706 0 0.59636844454254345 0.75937156204589151 0 0.5498280205245758 0.6290146943450976 0 0.57484956128872922 0.66573805030881994 0 0.5991018319127801 0.62925360607495295 0 0.59999999999999976 0.69999999999999996 0 0.57484956128872922 0.66573805030881994 0 0.62460753523532009 0.66851202781000296 0 0.57484956128872922 0.66573805030881994 0 0.62460753523532009 0.66851202781000296 0 0.5991018319127801 0.62925360607495295 0 0.62460753523532009 0.66851202781000296 0 0.5991018319127801 0.62925360607495295 0 0.6405463747586706 0.63290524857395714 0 0.62460753523532009 0.66851202781000296 0 0.6405463747586706 0.63290524857395714 0 0.675261390228442 0.65996937624687813 0 0.62460753523532009 0.66851202781000296 0 0.675261390228442 0.65996937624687813 0 0.6499999999999998 0.69999999999999996 0 0.675261390228442 0.65996937624687813 0 0.6499999999999998 0.69999999999999996 0 0.69999999999999984 0.69999999999999996 0 0.6405463747586706 0.63290524857395714 0 0.675261390228442 0.65996937624687813 0 0.67529834988829951 0.61613270668143583 0 0.63221990677827677 0.73442891067859706 0 0.66427993341343905 0.73232764502436276 0 0.64753070846764316 0.77332939069435502 0 0.63221990677827677 0.73442891067859706 0 0.6499999999999998 0.69999999999999996 0 0.66427993341343905 0.73232764502436276 0 0.59999999999999976 0.69999999999999996 0 0.63221990677827677 0.73442891067859706 0 0.6499999999999998 0.69999999999999996 0 0.6499999999999998 0.69999999999999996 0 0.69999999999999984 0.69999999999999996 0 0.6499999999999998 0.69999999999999996 0 0.66427993341343905 0.73232764502436276 0 0.69999999999999984 0.69999999999999996 0 0.66427993341343905 0.73232764502436276 0 0.69999999999999984 0.69999999999999996 0 0.6916490518212759 0.75387992374886192 0 0.69999999999999984 0.69999999999999996 0 0.72501250972655151 0.74067302935308721 0 0.6916490518212759 0.75387992374886192 0 0.69999999999999984 0.69999999999999996 0 0.74999999999999989 0.69999999999999996 0 0.72501250972655151 0.74067302935308721 0 0.69999999999999984 0.69999999999999996 0 0.74999999999999989 0.69999999999999996 0 0.72500000000000064 0.67022701834392062 0 0.69999999999999984 0.69999999999999996 0 0.74999999999999989 0.69999999999999996 0 0.74999999999999989 0.69999999999999996 0 0.72501250972655151 0.74067302935308721 0 0.75841349681148107 0.75422312624214749 0 0.675261390228442 0.65996937624687813 0 0.71406021706547751 0.63292083137662503 0 0.72500000000000064 0.67022701834392062 0 0.675261390228442 0.65996937624687813 0 0.71406021706547751 0.63292083137662503 0 0.67529834988829951 0.61613270668143583 0 0.675261390228442 0.65996937624687813 0 0.69999999999999984 0.69999999999999996 0 0.72500000000000064 0.67022701834392062 0 0.71406021706547751 0.63292083137662503 0 0.72500000000000064 0.67022701834392062 0 0.74994237037456724 0.62775548192980357 0 0.72500000000000064 0.67022701834392062 0 0.74994237037456724 0.62775548192980357 0 0.7750489929959945 0.66593931409600093 0 0.71406021706547751 0.63292083137662503 0 0.74994237037456724 0.62775548192980357 0 0.71809016091162536 0.58185040402320831 0 0.74994237037456724 0.62775548192980357 0 0.71809016091162536 0.58185040402320831 0 0.77293540622714185 0.59448302402785813 0 0.71406021706547751 0.63292083137662503 0 0.71809016091162536 0.58185040402320831 0 0.67529834988829951 0.61613270668143583 0 0.71809016091162536 0.58185040402320831 0 0.67569444444444449 0.53500863336860327 0 0.67323294229744413 0.57556450033612505 0 0.71809016091162536 0.58185040402320831 0 0.67529834988829951 0.61613270668143583 0 0.67323294229744413 0.57556450033612505 0 0.71809016091162536 0.58185040402320831 0 0.7152569930854884 0.5237994455134295 0 0.77151014687832564 0.54436834383023036 0 0.7152569930854884 0.5237994455134295 0 0.77151014687832564 0.54436834383023036 0 0.73947346780852752 0.49062440112282169 0 0.7152569930854884 0.5237994455134295 0 0.67569444444444449 0.53500863336860327 0 0.69385896817107129 0.48377516041410151 0 0.71809016091162536 0.58185040402320831 0 0.7152569930854884 0.5237994455134295 0 0.67569444444444449 0.53500863336860327 0 0.62042975506801734 0.54295974692364424 0 0.67569444444444449 0.53500863336860327 0 0.67323294229744413 0.57556450033612505 0 0.67569444444444449 0.53500863336860327 0 0.6541250972820879 0.49999999999999989 0 0.69385896817107129 0.48377516041410151 0 0.62042975506801734 0.54295974692364424 0 0.67569444444444449 0.53500863336860327 0 0.6541250972820879 0.49999999999999989 0 0.62042975506801734 0.54295974692364424 0 0.61547661924074692 0.48539576058873962 0 0.6541250972820879 0.49999999999999989 0 0.62042975506801734 0.54295974692364424 0 0.63065402604362242 0.59661356661633302 0 0.67323294229744413 0.57556450033612505 0 0.6405463747586706 0.63290524857395714 0 0.63065402604362242 0.59661356661633302 0 0.67529834988829951 0.61613270668143583 0 0.63065402604362242 0.59661356661633302 0 0.67529834988829951 0.61613270668143583 0 0.67323294229744413 0.57556450033612505 0 0.60000000000138687 1 0 0.62065498684670595 0.95224934003983619 0 0.57382506491224949 0.9629411906298494 0 0.60000000000138687 1 0 0.62065498684670595 0.95224934003983619 0 0.65000000000104008 1 0 0.62065498684670595 0.95224934003983619 0 0.57382506491224949 0.9629411906298494 0 0.57724883562309992 0.92155686857100794 0 0.60000000000138687 1 0 0.57382506491224949 0.9629411906298494 0 0.55000000000173355 1 0 0.55000000000173355 1 0 0.50000000000205869 1 0 0.52122150208832174 0.94089974453840242 0 0.57382506491224949 0.9629411906298494 0 0.52122150208832174 0.94089974453840242 0 0.57724883562309992 0.92155686857100794 0 0.57382506491224949 0.9629411906298494 0 0.55000000000173355 1 0 0.52122150208832174 0.94089974453840242 0 0.52122150208832174 0.94089974453840242 0 0.54783390826260769 0.89287767010860219 0 0.57724883562309992 0.92155686857100794 0 0.52122150208832174 0.94089974453840242 0 0.50202631463681879 0.87892870825713787 0 0.54783390826260769 0.89287767010860219 0 0.54783390826260769 0.89287767010860219 0 0.5832743223239254 0.88483152652961872 0 0.55899371797446828 0.85003102233514438 0 0.54783390826260769 0.89287767010860219 0 0.5832743223239254 0.88483152652961872 0 0.57724883562309992 0.92155686857100794 0 0.5832743223239254 0.88483152652961872 0 0.57724883562309992 0.92155686857100794 0 0.61885627562261258 0.90282959257498208 0 0.62065498684670595 0.95224934003983619 0 0.57724883562309992 0.92155686857100794 0 0.61885627562261258 0.90282959257498208 0 0.5832743223239254 0.88483152652961872 0 0.61885627562261258 0.90282959257498208 0 0.61343887413683884 0.856862479058357 0 0.61343887413683884 0.856862479058357 0 0.60294066490120068 0.80851322453934582 0 0.65005442820240822 0.82644988530054031 0 0.61343887413683884 0.856862479058357 0 0.55899371797446828 0.85003102233514438 0 0.60294066490120068 0.80851322453934582 0 0.55899371797446828 0.85003102233514438 0 0.54782696902220018 0.79245182748204157 0 0.60294066490120068 0.80851322453934582 0 0.5832743223239254 0.88483152652961872 0 0.61343887413683884 0.856862479058357 0 0.55899371797446828 0.85003102233514438 0 0.50202631463681879 0.87892870825713787 0 0.54783390826260769 0.89287767010860219 0 0.55899371797446828 0.85003102233514438 0 0.50202631463681879 0.87892870825713787 0 0.55899371797446828 0.85003102233514438 0 0.50627822638148745 0.8263979829520941 0 0.55899371797446828 0.85003102233514438 0 0.50627822638148745 0.8263979829520941 0 0.54782696902220018 0.79245182748204157 0 0.50627822638148745 0.8263979829520941 0 0.54782696902220018 0.79245182748204157 0 0.50731287292894423 0.78963574450233831 0 0.54782696902220018 0.79245182748204157 0 0.50731287292894423 0.78963574450233831 0 0.50945740445113552 0.75476055527778108 0 0.55363780716230748 0.74348740161571747 0 0.54782696902220018 0.79245182748204157 0 0.50945740445113552 0.75476055527778108 0 0.55363780716230748 0.74348740161571747 0 0.54782696902220018 0.79245182748204157 0 0.59636844454254345 0.75937156204589151 0 0.54782696902220018 0.79245182748204157 0 0.60294066490120068 0.80851322453934582 0 0.59636844454254345 0.75937156204589151 0 0.60294066490120068 0.80851322453934582 0 0.59636844454254345 0.75937156204589151 0 0.64753070846764316 0.77332939069435502 0 0.63221990677827677 0.73442891067859706 0 0.59636844454254345 0.75937156204589151 0 0.64753070846764316 0.77332939069435502 0 0.60294066490120068 0.80851322453934582 0 0.64753070846764316 0.77332939069435502 0 0.65005442820240822 0.82644988530054031 0 0.64753070846764316 0.77332939069435502 0 0.68024162096458085 0.79868546898116533 0 0.65005442820240822 0.82644988530054031 0 0.64753070846764316 0.77332939069435502 0 0.68024162096458085 0.79868546898116533 0 0.6916490518212759 0.75387992374886192 0 0.66427993341343905 0.73232764502436276 0 0.64753070846764316 0.77332939069435502 0 0.6916490518212759 0.75387992374886192 0 0.72501250972655151 0.74067302935308721 0 0.6916490518212759 0.75387992374886192 0 0.72500000000000064 0.7952620967744265 0 0.72501250972655151 0.74067302935308721 0 0.72500000000000064 0.7952620967744265 0 0.75841349681148107 0.75422312624214749 0 0.68024162096458085 0.79868546898116533 0 0.6916490518212759 0.75387992374886192 0 0.72500000000000064 0.7952620967744265 0 0.68024162096458085 0.79868546898116533 0 0.72500000000000064 0.7952620967744265 0 0.68697391633157634 0.84450604838764298 0 0.72500000000000064 0.7952620967744265 0 0.72863726579783861 0.85390518901155588 0 0.68697391633157634 0.84450604838764298 0 0.72500000000000064 0.7952620967744265 0 0.72863726579783861 0.85390518901155588 0 0.76901770135486491 0.84293557325473656 0 0.72863726579783861 0.85390518901155588 0 0.68697391633157634 0.84450604838764298 0 0.7250000000005199 0.89375000000045834 0 0.68697391633157634 0.84450604838764298 0 0.66412543161245952 0.88015090885499059 0 0.7250000000005199 0.89375000000045834 0 0.68697391633157634 0.84450604838764298 0 0.65005442820240822 0.82644988530054031 0 0.66412543161245952 0.88015090885499059 0 0.68024162096458085 0.79868546898116533 0 0.68697391633157634 0.84450604838764298 0 0.65005442820240822 0.82644988530054031 0 0.61343887413683884 0.856862479058357 0 0.65005442820240822 0.82644988530054031 0 0.66412543161245952 0.88015090885499059 0 0.61885627562261258 0.90282959257498208 0 0.61343887413683884 0.856862479058357 0 0.66412543161245952 0.88015090885499059 0 0.61885627562261258 0.90282959257498208 0 0.65507451745379841 0.92229208810758578 0 0.66412543161245952 0.88015090885499059 0 0.62065498684670595 0.95224934003983619 0 0.61885627562261258 0.90282959257498208 0 0.65507451745379841 0.92229208810758578 0 0.65507451745379841 0.92229208810758578 0 0.68987011941058407 0.92105047536677087 0 0.68015064798562208 0.95924320340003011 0 0.65507451745379841 0.92229208810758578 0 0.66412543161245952 0.88015090885499059 0 0.68987011941058407 0.92105047536677087 0 0.66412543161245952 0.88015090885499059 0 0.7250000000005199 0.89375000000045834 0 0.68987011941058407 0.92105047536677087 0 0.72863726579783861 0.85390518901155588 0 0.7250000000005199 0.89375000000045834 0 0.76891166905518427 0.88835469571185499 0 0.7250000000005199 0.89375000000045834 0 0.7250000000005199 0.94981617647078953 0 0.75729602384198635 0.92353652857884294 0 0.7250000000005199 0.89375000000045834 0 0.68987011941058407 0.92105047536677087 0 0.7250000000005199 0.94981617647078953 0 0.68987011941058407 0.92105047536677087 0 0.7250000000005199 0.94981617647078953 0 0.68015064798562208 0.95924320340003011 0 0.7250000000005199 0.94981617647078953 0 0.7000000000006934 1 0 0.75000000000034661 1 0 0.7250000000005199 0.94981617647078953 0 0.75000000000034661 1 0 0.770759834363826 0.95919399014344442 0 0.7250000000005199 0.94981617647078953 0 0.7000000000006934 1 0 0.68015064798562208 0.95924320340003011 0 0.7000000000006934 1 0 0.68015064798562208 0.95924320340003011 0 0.65000000000104008 1 0 0.62065498684670595 0.95224934003983619 0 0.65507451745379841 0.92229208810758578 0 0.68015064798562208 0.95924320340003011 0 0.62065498684670595 0.95224934003983619 0 0.68015064798562208 0.95924320340003011 0 0.65000000000104008 1 0 0.84999999999965292 1 0 0.85170973911348691 0.93569607295217616 0 0.89898474358632463 0.95391965591118966 0 0.84999999999965292 1 0 0.81486180804382891 0.96321394949790495 0 0.85170973911348691 0.93569607295217616 0 0.81486180804382891 0.96321394949790495 0 0.79680861578988083 0.92656778056766709 0 0.85170973911348691 0.93569607295217616 0 0.84999999999965292 1 0 0.81486180804382891 0.96321394949790495 0 0.79999999999999982 1 0 0.81486180804382891 0.96321394949790495 0 0.79999999999999982 1 0 0.770759834363826 0.95919399014344442 0 0.79999999999999982 1 0 0.75000000000034661 1 0 0.770759834363826 0.95919399014344442 0 0.7250000000005199 0.94981617647078953 0 0.770759834363826 0.95919399014344442 0 0.75729602384198635 0.92353652857884294 0 0.81486180804382891 0.96321394949790495 0 0.770759834363826 0.95919399014344442 0 0.79680861578988083 0.92656778056766709 0 0.79680861578988083 0.92656778056766709 0 0.75729602384198635 0.92353652857884294 0 0.76891166905518427 0.88835469571185499 0 0.770759834363826 0.95919399014344442 0 0.79680861578988083 0.92656778056766709 0 0.75729602384198635 0.92353652857884294 0 0.7250000000005199 0.89375000000045834 0 0.75729602384198635 0.92353652857884294 0 0.76891166905518427 0.88835469571185499 0 0.79680861578988083 0.92656778056766709 0 0.76891166905518427 0.88835469571185499 0 0.81159157511211755 0.88795995483179491 0 0.81159157511211755 0.88795995483179491 0 0.85170973911348691 0.93569607295217616 0 0.85600844944837662 0.88483418979512773 0 0.79680861578988083 0.92656778056766709 0 0.81159157511211755 0.88795995483179491 0 0.85170973911348691 0.93569607295217616 0 0.85170973911348691 0.93569607295217616 0 0.85600844944837662 0.88483418979512773 0 0.90416666666660628 0.9041666666666166 0 0.85600844944837662 0.88483418979512773 0 0.82709327591091286 0.84937141670920724 0 0.88088768115933802 0.84674609810493673 0 0.82709327591091286 0.84937141670920724 0 0.84725310900444062 0.80779732082917555 0 0.88088768115933802 0.84674609810493673 0 0.82709327591091286 0.84937141670920724 0 0.80041942726660109 0.81543261647703358 0 0.84725310900444062 0.80779732082917555 0 0.81159157511211755 0.88795995483179491 0 0.85600844944837662 0.88483418979512773 0 0.82709327591091286 0.84937141670920724 0 0.76891166905518427 0.88835469571185499 0 0.81159157511211755 0.88795995483179491 0 0.76901770135486491 0.84293557325473656 0 0.81159157511211755 0.88795995483179491 0 0.82709327591091286 0.84937141670920724 0 0.76901770135486491 0.84293557325473656 0 0.72863726579783861 0.85390518901155588 0 0.76891166905518427 0.88835469571185499 0 0.76901770135486491 0.84293557325473656 0 0.76901770135486491 0.84293557325473656 0 0.80041942726660109 0.81543261647703358 0 0.77094201086366854 0.79647480515688507 0 0.82709327591091286 0.84937141670920724 0 0.76901770135486491 0.84293557325473656 0 0.80041942726660109 0.81543261647703358 0 0.80041942726660109 0.81543261647703358 0 0.77094201086366854 0.79647480515688507 0 0.80185942888539485 0.77452061303608133 0 0.72500000000000064 0.7952620967744265 0 0.77094201086366854 0.79647480515688507 0 0.75841349681148107 0.75422312624214749 0 0.72500000000000064 0.7952620967744265 0 0.76901770135486491 0.84293557325473656 0 0.77094201086366854 0.79647480515688507 0 0.77094201086366854 0.79647480515688507 0 0.75841349681148107 0.75422312624214749 0 0.80185942888539485 0.77452061303608133 0 0.75841349681148107 0.75422312624214749 0 0.80185942888539485 0.77452061303608133 0 0.78578450296893509 0.73292684821144505 0 0.80185942888539485 0.77452061303608133 0 0.84725310900444062 0.80779732082917555 0 0.85491058998424563 0.76004753345552634 0 0.80185942888539485 0.77452061303608133 0 0.85491058998424563 0.76004753345552634 0 0.81864958914779962 0.73589050177899629 0 0.80041942726660109 0.81543261647703358 0 0.80185942888539485 0.77452061303608133 0 0.84725310900444062 0.80779732082917555 0 0.84725310900444062 0.80779732082917555 0 0.85491058998424563 0.76004753345552634 0 0.90299850604011456 0.79563452813489832 0 0.85491058998424563 0.76004753345552634 0 0.90299850604011456 0.79563452813489832 0 0.89999166460796554 0.74528934923809909 0 0.90299850604011456 0.79563452813489832 0 0.94399509803918602 0.75600490196082126 0 0.95386563387742829 0.80414874155775029 0 0.90299850604011456 0.79563452813489832 0 0.94399509803918602 0.75600490196082126 0 0.89999166460796554 0.74528934923809909 0 0.94399509803918602 0.75600490196082126 0 0.97435614836745565 0.77499999999987745 0 0.95386563387742829 0.80414874155775029 0 0.94399509803918602 0.75600490196082126 0 0.97435614836745565 0.77499999999987745 0 0.97166519676947294 0.73337114490064459 0 0.97435614836745565 0.77499999999987745 0 0.97166519676947294 0.73337114490064459 0 1 0.74999999999993494 0 0.97435614836745565 0.77499999999987745 0 1 0.7999999999998193 0 1 0.74999999999993494 0 0.97435614836745565 0.77499999999987745 0 1 0.7999999999998193 0 0.95386563387742829 0.80414874155775029 0 1 0.84999999999982645 0 0.93677536231884972 0.85000000000000286 0 0.95391631417670719 0.89584263333814784 0 0.95386563387742829 0.80414874155775029 0 1 0.84999999999982645 0 0.93677536231884972 0.85000000000000286 0 1 0.7999999999998193 0 0.95386563387742829 0.80414874155775029 0 1 0.84999999999982645 0 0.93677536231884972 0.85000000000000286 0 0.88088768115933802 0.84674609810493673 0 0.90416666666660628 0.9041666666666166 0 0.90299850604011456 0.79563452813489832 0 0.95386563387742829 0.80414874155775029 0 0.93677536231884972 0.85000000000000286 0 0.90299850604011456 0.79563452813489832 0 0.93677536231884972 0.85000000000000286 0 0.88088768115933802 0.84674609810493673 0 0.84725310900444062 0.80779732082917555 0 0.90299850604011456 0.79563452813489832 0 0.88088768115933802 0.84674609810493673 0 0.85600844944837662 0.88483418979512773 0 0.88088768115933802 0.84674609810493673 0 0.90416666666660628 0.9041666666666166 0 0.85170973911348691 0.93569607295217616 0 0.90416666666660628 0.9041666666666166 0 0.89898474358632463 0.95391965591118966 0 0.90416666666660628 0.9041666666666166 0 0.95391631417670719 0.89584263333814784 0 0.94399509803919068 0.9439950980391687 0 0.90416666666660628 0.9041666666666166 0 0.94399509803919068 0.9439950980391687 0 0.89898474358632463 0.95391965591118966 0 0.93677536231884972 0.85000000000000286 0 0.90416666666660628 0.9041666666666166 0 0.95391631417670719 0.89584263333814784 0 1 0.84999999999982645 0 0.95391631417670719 0.89584263333814784 0 1 0.8999999999998336 0 1 0.8999999999998336 0 0.97435614836744289 0.92499999999990257 0 1 0.94999999999997109 0 0.95391631417670719 0.89584263333814784 0 1 0.8999999999998336 0 0.97435614836744289 0.92499999999990257 0 0.95391631417670719 0.89584263333814784 0 0.97435614836744289 0.92499999999990257 0 0.94399509803919068 0.9439950980391687 0 0.97435614836744289 0.92499999999990257 0 0.94399509803919068 0.9439950980391687 0 0.97166519676946206 0.96662885509935492 0 0.97435614836744289 0.92499999999990257 0 0.97166519676946206 0.96662885509935492 0 1 0.94999999999997109 0 0.97166519676946206 0.96662885509935492 0 1 0.94999999999997109 0 1 1 0 0.97166519676946206 0.96662885509935492 0 1 1 0 0.94999999999979179 1 0 0.94399509803919068 0.9439950980391687 0 0.97166519676946206 0.96662885509935492 0 0.94999999999979179 1 0 0.94999999999979179 1 0 0.89898474358632463 0.95391965591118966 0 0.89999999999958358 1 0 0.94399509803919068 0.9439950980391687 0 0.94999999999979179 1 0 0.89898474358632463 0.95391965591118966 0 0.84999999999965292 1 0 0.89898474358632463 0.95391965591118966 0 0.89999999999958358 1 0 0.81723410853263523 0.59419663659258926 0 0.86956835336234861 0.571283299838105 0 0.82862096804812391 0.55037090955459045 0 0.81723410853263523 0.59419663659258926 0 0.87159648282691515 0.61285406320581504 0 0.83758014339878906 0.63222013025741819 0 0.81723410853263523 0.59419663659258926 0 0.79884539758237771 0.62875045078114233 0 0.83758014339878906 0.63222013025741819 0 0.81723410853263523 0.59419663659258926 0 0.87159648282691515 0.61285406320581504 0 0.86956835336234861 0.571283299838105 0 0.86956835336234861 0.571283299838105 0 0.86907294890112186 0.52008116128001669 0 0.82862096804812391 0.55037090955459045 0 0.86907294890112186 0.52008116128001669 0 0.81441713509985358 0.51161854125224959 0 0.82862096804812391 0.55037090955459045 0 0.86907294890112186 0.52008116128001669 0 0.81441713509985358 0.51161854125224959 0 0.84723782639812573 0.48638347960178252 0 0.81441713509985358 0.51161854125224959 0 0.82862096804812391 0.55037090955459045 0 0.77151014687832564 0.54436834383023036 0 0.81441713509985358 0.51161854125224959 0 0.77151014687832564 0.54436834383023036 0 0.77846603114747959 0.49850927265137401 0 0.77151014687832564 0.54436834383023036 0 0.77846603114747959 0.49850927265137401 0 0.73947346780852752 0.49062440112282169 0 0.71809016091162536 0.58185040402320831 0 0.77151014687832564 0.54436834383023036 0 0.77293540622714185 0.59448302402785813 0 0.81723410853263523 0.59419663659258926 0 0.77151014687832564 0.54436834383023036 0 0.77293540622714185 0.59448302402785813 0 0.81723410853263523 0.59419663659258926 0 0.82862096804812391 0.55037090955459045 0 0.77151014687832564 0.54436834383023036 0 0.81723410853263523 0.59419663659258926 0 0.77293540622714185 0.59448302402785813 0 0.79884539758237771 0.62875045078114233 0 0.74994237037456724 0.62775548192980357 0 0.77293540622714185 0.59448302402785813 0 0.79884539758237771 0.62875045078114233 0 0.74994237037456724 0.62775548192980357 0 0.7750489929959945 0.66593931409600093 0 0.79884539758237771 0.62875045078114233 0 0.74999999999999989 0.69999999999999996 0 0.72500000000000064 0.67022701834392062 0 0.7750489929959945 0.66593931409600093 0 0.7750489929959945 0.66593931409600093 0 0.79999999999999982 0.69999999999999996 0 0.82457059160610424 0.66831947184359608 0 0.7750489929959945 0.66593931409600093 0 0.79884539758237771 0.62875045078114233 0 0.82457059160610424 0.66831947184359608 0 0.74999999999999989 0.69999999999999996 0 0.75841349681148107 0.75422312624214749 0 0.78578450296893509 0.73292684821144505 0 0.74999999999999989 0.69999999999999996 0 0.79999999999999982 0.69999999999999996 0 0.78578450296893509 0.73292684821144505 0 0.74999999999999989 0.69999999999999996 0 0.7750489929959945 0.66593931409600093 0 0.79999999999999982 0.69999999999999996 0 0.74999999999999989 0.69999999999999996 0 0.79999999999999982 0.69999999999999996 0 0.80185942888539485 0.77452061303608133 0 0.78578450296893509 0.73292684821144505 0 0.81864958914779962 0.73589050177899629 0 0.79999999999999982 0.69999999999999996 0 0.78578450296893509 0.73292684821144505 0 0.81864958914779962 0.73589050177899629 0 0.85491058998424563 0.76004753345552634 0 0.81864958914779962 0.73589050177899629 0 0.84999999999999987 0.69999999999999996 0 0.79999999999999982 0.69999999999999996 0 0.84999999999999987 0.69999999999999996 0 0.79999999999999982 0.69999999999999996 0 0.84999999999999987 0.69999999999999996 0 0.82457059160610424 0.66831947184359608 0 0.79999999999999982 0.69999999999999996 0 0.81864958914779962 0.73589050177899629 0 0.84999999999999987 0.69999999999999996 0 0.84999999999999987 0.69999999999999996 0 0.89999999999999991 0.69999999999999996 0 0.85491058998424563 0.76004753345552634 0 0.84999999999999987 0.69999999999999996 0 0.89999166460796554 0.74528934923809909 0 0.79884539758237771 0.62875045078114233 0 0.83758014339878906 0.63222013025741819 0 0.82457059160610424 0.66831947184359608 0 0.84999999999999987 0.69999999999999996 0 0.82457059160610424 0.66831947184359608 0 0.87712158428786946 0.65709029563313581 0 0.87159648282691515 0.61285406320581504 0 0.83758014339878906 0.63222013025741819 0 0.87712158428786946 0.65709029563313581 0 0.83758014339878906 0.63222013025741819 0 0.82457059160610424 0.66831947184359608 0 0.87712158428786946 0.65709029563313581 0 0.87712158428786946 0.65709029563313581 0 0.92057473616084773 0.66770436535372446 0 0.91750694127105259 0.63017627779935648 0 0.87159648282691515 0.61285406320581504 0 0.87712158428786946 0.65709029563313581 0 0.91750694127105259 0.63017627779935648 0 0.84999999999999987 0.69999999999999996 0 0.87712158428786946 0.65709029563313581 0 0.89999999999999991 0.69999999999999996 0 0.87712158428786946 0.65709029563313581 0 0.92057473616084773 0.66770436535372446 0 0.89999999999999991 0.69999999999999996 0 0.92057473616084773 0.66770436535372446 0 0.91750694127105259 0.63017627779935648 0 0.9578014258160763 0.65787212321113708 0 0.84999999999999987 0.69999999999999996 0 0.89999166460796554 0.74528934923809909 0 0.89999999999999991 0.69999999999999996 0 0.89999999999999991 0.69999999999999996 0 0.94999999999999996 0.69999999999999996 0 0.92057473616084773 0.66770436535372446 0 0.89999999999999991 0.69999999999999996 0 0.94999999999999996 0.69999999999999996 0 0.89999166460796554 0.74528934923809909 0 0.89999999999999991 0.69999999999999996 0 0.94999999999999996 0.69999999999999996 0 0.94399509803918602 0.75600490196082126 0 0.89999166460796554 0.74528934923809909 0 0.94999999999999996 0.69999999999999996 0 0.94399509803918602 0.75600490196082126 0 0.94999999999999996 0.69999999999999996 0 0.97166519676947294 0.73337114490064459 0 0.94999999999999996 0.69999999999999996 0 1 0.69999999999999996 0 0.94999999999999996 0.69999999999999996 0 1 0.69999999999999996 0 0.97166519676947294 0.73337114490064459 0 1 0.69999999999999996 0 0.97166519676947294 0.73337114490064459 0 1 0.74999999999993494 0 0.91750694127105259 0.63017627779935648 0 0.9578014258160763 0.65787212321113708 0 0.95867599106212187 0.60011091146651041 0 0.92057473616084773 0.66770436535372446 0 0.94999999999999996 0.69999999999999996 0 0.9578014258160763 0.65787212321113708 0 0.94999999999999996 0.69999999999999996 0 1 0.69999999999999996 0 0.9578014258160763 0.65787212321113708 0 1 0.69999999999999996 0 0.9578014258160763 0.65787212321113708 0 1 0.64999999999986979 0 0.9578014258160763 0.65787212321113708 0 1 0.64999999999986979 0 0.95867599106212187 0.60011091146651041 0 0.95867599106212187 0.60011091146651041 0 0.93732437411268477 0.55911392101136159 0 1 0.54999999999963112 0 1 0.64999999999986979 0 1 0.59999999999973963 0 0.95867599106212187 0.60011091146651041 0 1 0.59999999999973963 0 0.95867599106212187 0.60011091146651041 0 1 0.54999999999963112 0 0.91750694127105259 0.63017627779935648 0 0.95867599106212187 0.60011091146651041 0 0.91143117093204207 0.58709913730335972 0 0.95867599106212187 0.60011091146651041 0 0.91143117093204207 0.58709913730335972 0 0.93732437411268477 0.55911392101136159 0 0.86956835336234861 0.571283299838105 0 0.91143117093204207 0.58709913730335972 0 0.90900154012161016 0.53607784105648792 0 0.87159648282691515 0.61285406320581504 0 0.86956835336234861 0.571283299838105 0 0.91143117093204207 0.58709913730335972 0 0.87159648282691515 0.61285406320581504 0 0.91750694127105259 0.63017627779935648 0 0.91143117093204207 0.58709913730335972 0 0.86907294890112186 0.52008116128001669 0 0.90900154012161016 0.53607784105648792 0 0.91696753777131557 0.497780560203536 0 0.86956835336234861 0.571283299838105 0 0.86907294890112186 0.52008116128001669 0 0.90900154012161016 0.53607784105648792 0 0.90900154012161016 0.53607784105648792 0 0.93732437411268477 0.55911392101136159 0 0.95631871884947484 0.51827533208233789 0 0.91143117093204207 0.58709913730335972 0 0.90900154012161016 0.53607784105648792 0 0.93732437411268477 0.55911392101136159 0 0.90900154012161016 0.53607784105648792 0 0.95631871884947484 0.51827533208233789 0 0.91696753777131557 0.497780560203536 0 0.93732437411268477 0.55911392101136159 0 0.95631871884947484 0.51827533208233789 0 1 0.54999999999963112 0 0.95631871884947484 0.51827533208233789 0 1 0.54999999999963112 0 1 0.49999999999950101 0 0.95631871884947484 0.51827533208233789 0 1 0.49999999999950101 0 0.96228564064454991 0.48206450662049471 0 1 0.49999999999950101 0 1 0.44999999999963131 0 0.96228564064454991 0.48206450662049471 0 1 0.44999999999963131 0 0.93814194660195893 0.44426664081746747 0 0.96228564064454991 0.48206450662049471 0 0.93814194660195893 0.44426664081746747 0 0.96228564064454991 0.48206450662049471 0 0.91696753777131557 0.497780560203536 0 0.95631871884947484 0.51827533208233789 0 0.96228564064454991 0.48206450662049471 0 0.91696753777131557 0.497780560203536 0 1 0.39999999999978308 0 0.95871855522754235 0.40006508612975411 0 1 0.34999999999993492 0 1 0.44999999999963131 0 1 0.39999999999978308 0 0.95871855522754235 0.40006508612975411 0 1 0.44999999999963131 0 0.93814194660195893 0.44426664081746747 0 0.95871855522754235 0.40006508612975411 0 0.95871855522754235 0.40006508612975411 0 0.90594285160987287 0.4141265964174129 0 0.91750694127107502 0.36982372220068471 0 0.93814194660195893 0.44426664081746747 0 0.95871855522754235 0.40006508612975411 0 0.90594285160987287 0.4141265964174129 0 0.90594285160987287 0.4141265964174129 0 0.88594198078881503 0.46167788676578442 0 0.86411095495256451 0.42388805655111889 0 0.90594285160987287 0.4141265964174129 0 0.86411095495256451 0.42388805655111889 0 0.86844634540301924 0.38530937474099819 0 0.90594285160987287 0.4141265964174129 0 0.86844634540301924 0.38530937474099819 0 0.91750694127107502 0.36982372220068471 0 0.93814194660195893 0.44426664081746747 0 0.91696753777131557 0.497780560203536 0 0.88594198078881503 0.46167788676578442 0 0.93814194660195893 0.44426664081746747 0 0.90594285160987287 0.4141265964174129 0 0.88594198078881503 0.46167788676578442 0 0.86907294890112186 0.52008116128001669 0 0.91696753777131557 0.497780560203536 0 0.88594198078881503 0.46167788676578442 0 0.86907294890112186 0.52008116128001669 0 0.88594198078881503 0.46167788676578442 0 0.84723782639812573 0.48638347960178252 0 0.81441713509985358 0.51161854125224959 0 0.84723782639812573 0.48638347960178252 0 0.81400510706333218 0.47357325943904899 0 0.84723782639812573 0.48638347960178252 0 0.81400510706333218 0.47357325943904899 0 0.84925632466077294 0.45359738909549091 0 0.81400510706333218 0.47357325943904899 0 0.84925632466077294 0.45359738909549091 0 0.81973119833356312 0.43505687159469048 0 0.88594198078881503 0.46167788676578442 0 0.84723782639812573 0.48638347960178252 0 0.84925632466077294 0.45359738909549091 0 0.84925632466077294 0.45359738909549091 0 0.86411095495256451 0.42388805655111889 0 0.81973119833356312 0.43505687159469048 0 0.88594198078881503 0.46167788676578442 0 0.84925632466077294 0.45359738909549091 0 0.86411095495256451 0.42388805655111889 0 0.86411095495256451 0.42388805655111889 0 0.86844634540301924 0.38530937474099819 0 0.81308179852519835 0.39754945808726527 0 0.86844634540301924 0.38530937474099819 0 0.81308179852519835 0.39754945808726527 0 0.83573492347052902 0.36590755630746369 0 0.86411095495256451 0.42388805655111889 0 0.81308179852519835 0.39754945808726527 0 0.81973119833356312 0.43505687159469048 0 0.81973119833356312 0.43505687159469048 0 0.77354604466818633 0.40378688774472771 0 0.77972660463949339 0.45529290596363098 0 0.81308179852519835 0.39754945808726527 0 0.81973119833356312 0.43505687159469048 0 0.77354604466818633 0.40378688774472771 0 0.81308179852519835 0.39754945808726527 0 0.77354604466818633 0.40378688774472771 0 0.78145581580700685 0.34881365920033602 0 0.77354604466818633 0.40378688774472771 0 0.77972660463949339 0.45529290596363098 0 0.73483647259922602 0.44789725365921768 0 0.77972660463949339 0.45529290596363098 0 0.73483647259922602 0.44789725365921768 0 0.73947346780852752 0.49062440112282169 0 0.77972660463949339 0.45529290596363098 0 0.77846603114747959 0.49850927265137401 0 0.73947346780852752 0.49062440112282169 0 0.81400510706333218 0.47357325943904899 0 0.77972660463949339 0.45529290596363098 0 0.77846603114747959 0.49850927265137401 0 0.81441713509985358 0.51161854125224959 0 0.81400510706333218 0.47357325943904899 0 0.77846603114747959 0.49850927265137401 0 0.81400510706333218 0.47357325943904899 0 0.81973119833356312 0.43505687159469048 0 0.77972660463949339 0.45529290596363098 0 0.79999999999999982 0.29999999999999999 0 0.77075983436335049 0.25919399014334171 0 0.81486180804364938 0.26321394949780091 0 0.79999999999999982 0.29999999999999999 0 0.74999999999999989 0.29999999999999999 0 0.79999999999999982 0.29999999999999999 0 0.77075983436335049 0.25919399014334171 0 0.74999999999999989 0.29999999999999999 0 0.79999999999999982 0.29999999999999999 0 0.78145581580700685 0.34881365920033602 0 0.74999999999999989 0.29999999999999999 0 0.78145581580700685 0.34881365920033602 0 0.73090396928863699 0.33699297293167962 0 0.74999999999999989 0.29999999999999999 0 0.77354604466818633 0.40378688774472771 0 0.78145581580700685 0.34881365920033602 0 0.74764719760526988 0.3719647154012321 0 0.78145581580700685 0.34881365920033602 0 0.74764719760526988 0.3719647154012321 0 0.73090396928863699 0.33699297293167962 0 0.81308179852519835 0.39754945808726527 0 0.78145581580700685 0.34881365920033602 0 0.83573492347052902 0.36590755630746369 0 0.79999999999999982 0.29999999999999999 0 0.78145581580700685 0.34881365920033602 0 0.82500000000000062 0.33010209762754811 0 0.78145581580700685 0.34881365920033602 0 0.82500000000000062 0.33010209762754811 0 0.83573492347052902 0.36590755630746369 0 0.82500000000000062 0.33010209762754811 0 0.83573492347052902 0.36590755630746369 0 0.87430060258887643 0.34056085888204451 0 0.86844634540301924 0.38530937474099819 0 0.83573492347052902 0.36590755630746369 0 0.87430060258887643 0.34056085888204451 0 0.82500000000000062 0.33010209762754811 0 0.87430060258887643 0.34056085888204451 0 0.84999999999999987 0.29999999999999999 0 0.87430060258887643 0.34056085888204451 0 0.84999999999999987 0.29999999999999999 0 0.89999999999999991 0.29999999999999999 0 0.84999999999999987 0.29999999999999999 0 0.81486180804364938 0.26321394949780091 0 0.8517097391133297 0.2356960729520409 0 0.84999999999999987 0.29999999999999999 0 0.89898474358614167 0.25391965591104898 0 0.8517097391133297 0.2356960729520409 0 0.84999999999999987 0.29999999999999999 0 0.89999999999999991 0.29999999999999999 0 0.79999999999999982 0.29999999999999999 0 0.82500000000000062 0.33010209762754811 0 0.84999999999999987 0.29999999999999999 0 0.79999999999999982 0.29999999999999999 0 0.84999999999999987 0.29999999999999999 0 0.81486180804364938 0.26321394949780091 0 0.79999999999999982 0.29999999999999999 0 0.84999999999999987 0.29999999999999999 0 0.84999999999999987 0.29999999999999999 0 0.89898474358614167 0.25391965591104898 0 0.89999999999999991 0.29999999999999999 0 0.89999999999999991 0.29999999999999999 0 0.94999999999999996 0.29999999999999999 0 0.89999999999999991 0.29999999999999999 0 0.92012390126144183 0.33123581297173937 0 0.94999999999999996 0.29999999999999999 0 0.89898474358614167 0.25391965591104898 0 0.89999999999999991 0.29999999999999999 0 0.94999999999999996 0.29999999999999999 0 0.89898474358614167 0.25391965591104898 0 0.94999999999999996 0.29999999999999999 0 0.94399509803921056 0.24399509803922639 0 0.86844634540301924 0.38530937474099819 0 0.87430060258887643 0.34056085888204451 0 0.91750694127107502 0.36982372220068471 0 0.87430060258887643 0.34056085888204451 0 0.92012390126144183 0.33123581297173937 0 0.91750694127107502 0.36982372220068471 0 0.87430060258887643 0.34056085888204451 0 0.89999999999999991 0.29999999999999999 0 0.92012390126144183 0.33123581297173937 0 0.92012390126144183 0.33123581297173937 0 0.91750694127107502 0.36982372220068471 0 0.95780851984364423 0.34215720972155339 0 0.95871855522754235 0.40006508612975411 0 0.91750694127107502 0.36982372220068471 0 0.95780851984364423 0.34215720972155339 0 0.92012390126144183 0.33123581297173937 0 0.95780851984364423 0.34215720972155339 0 0.94999999999999996 0.29999999999999999 0 0.95780851984364423 0.34215720972155339 0 0.94999999999999996 0.29999999999999999 0 1 0.29999999999999999 0 0.95780851984364423 0.34215720972155339 0 1 0.34999999999993492 0 1 0.29999999999999999 0 0.95871855522754235 0.40006508612975411 0 0.95780851984364423 0.34215720972155339 0 1 0.34999999999993492 0 0.94999999999999996 0.29999999999999999 0 0.97166519676951801 0.26662885509932011 0 0.94399509803921056 0.24399509803922639 0 0.94999999999999996 0.29999999999999999 0 1 0.29999999999999999 0 0.94999999999999996 0.29999999999999999 0 1 0.29999999999999999 0 0.97166519676951801 0.26662885509932011 0 1 0.29999999999999999 0 0.97166519676951801 0.26662885509932011 0 1 0.24999999999987299 0 0.97166519676951801 0.26662885509932011 0 0.97435614836740092 0.22499999999981049 0 1 0.24999999999987299 0 0.97435614836740092 0.22499999999981049 0 1 0.24999999999987299 0 1 0.19999999999974799 0 0.97435614836740092 0.22499999999981049 0 0.94399509803921056 0.24399509803922639 0 0.95391631417672862 0.19584263333809451 0 0.97166519676951801 0.26662885509932011 0 0.97435614836740092 0.22499999999981049 0 0.94399509803921056 0.24399509803922639 0 0.97435614836740092 0.22499999999981049 0 0.95391631417672862 0.19584263333809451 0 1 0.19999999999974799 0 0.95391631417672862 0.19584263333809451 0 1 0.14999999999961891 0 0.93677536231883773 0.14999999999999089 0 1 0.14999999999961891 0 0.93677536231883773 0.14999999999999089 0 0.95386563387744361 0.1041487415577465 0 0.95391631417672862 0.19584263333809451 0 1 0.19999999999974799 0 1 0.14999999999961891 0 0.95391631417672862 0.19584263333809451 0 0.93677536231883773 0.14999999999999089 0 0.90416666666668166 0.20416666666667119 0 0.93677536231883773 0.14999999999999089 0 0.88088768115941807 0.14674609810479519 0 0.90416666666668166 0.20416666666667119 0 0.93677536231883773 0.14999999999999089 0 0.88088768115941807 0.14674609810479519 0 0.90299850604006393 0.09563452813493091 0 0.88088768115941807 0.14674609810479519 0 0.90416666666668166 0.20416666666667119 0 0.85600844944842547 0.1848341897950983 0 0.89898474358614167 0.25391965591104898 0 0.90416666666668166 0.20416666666667119 0 0.8517097391133297 0.2356960729520409 0 0.89898474358614167 0.25391965591104898 0 0.94399509803921056 0.24399509803922639 0 0.90416666666668166 0.20416666666667119 0 0.94399509803921056 0.24399509803922639 0 0.95391631417672862 0.19584263333809451 0 0.90416666666668166 0.20416666666667119 0 0.94999999999986839 0 0 0.97166519676946894 0.033371144900598393 0 0.94399509803922566 0.056004901960802607 0 0.94999999999986839 0 0 1 0 0 0.97166519676946894 0.033371144900598393 0 1 0 0 1 0.049999999999896842 0 0.97166519676946894 0.033371144900598393 0 1 0.049999999999896842 0 0.97166519676946894 0.033371144900598393 0 0.97435614836748241 0.074999999999825387 0 0.97166519676946894 0.033371144900598393 0 0.94399509803922566 0.056004901960802607 0 0.97435614836748241 0.074999999999825387 0 0.94399509803922566 0.056004901960802607 0 0.97435614836748241 0.074999999999825387 0 0.95386563387744361 0.1041487415577465 0 0.97435614836748241 0.074999999999825387 0 1 0.099999999999753911 0 0.95386563387744361 0.1041487415577465 0 1 0.049999999999896842 0 0.97435614836748241 0.074999999999825387 0 1 0.099999999999753911 0 1 0.14999999999961891 0 1 0.099999999999753911 0 0.95386563387744361 0.1041487415577465 0 0.93677536231883773 0.14999999999999089 0 0.95386563387744361 0.1041487415577465 0 0.90299850604006393 0.09563452813493091 0 0.88088768115941807 0.14674609810479519 0 0.90299850604006393 0.09563452813493091 0 0.84725310900442086 0.10779732082922661 0 0.90299850604006393 0.09563452813493091 0 0.899991664607802 0.045289349238254978 0 0.85491058998398861 0.060047533455626502 0 0.94399509803922566 0.056004901960802607 0 0.95386563387744361 0.1041487415577465 0 0.90299850604006393 0.09563452813493091 0 0.94399509803922566 0.056004901960802607 0 0.90299850604006393 0.09563452813493091 0 0.899991664607802 0.045289349238254978 0 0.94999999999986839 0 0 0.94399509803922566 0.056004901960802607 0 0.899991664607802 0.045289349238254978 0 0.899991664607802 0.045289349238254978 0 0.89999999999973679 0 0 0.84999999999960507 0 0 0.94999999999986839 0 0 0.899991664607802 0.045289349238254978 0 0.89999999999973679 0 0 0.84999999999960507 0 0 0.81864958914740749 0.035890501779055867 0 0.79999999999947335 0 0 0.899991664607802 0.045289349238254978 0 0.84999999999960507 0 0 0.85491058998398861 0.060047533455626502 0 0.85491058998398861 0.060047533455626502 0 0.81864958914740749 0.035890501779055867 0 0.80185942888501827 0.074520613036224564 0 0.84999999999960507 0 0 0.85491058998398861 0.060047533455626502 0 0.81864958914740749 0.035890501779055867 0 0.85491058998398861 0.060047533455626502 0 0.84725310900442086 0.10779732082922661 0 0.80185942888501827 0.074520613036224564 0 0.90299850604006393 0.09563452813493091 0 0.85491058998398861 0.060047533455626502 0 0.84725310900442086 0.10779732082922661 0 0.84725310900442086 0.10779732082922661 0 0.80076557130237269 0.1154587552654202 0 0.80185942888501827 0.074520613036224564 0 0.84725310900442086 0.10779732082922661 0 0.80076557130237269 0.1154587552654202 0 0.82709327591102189 0.14937141670914489 0 0.80076557130237269 0.1154587552654202 0 0.76878382444651716 0.097147941686331368 0 0.80185942888501827 0.074520613036224564 0 0.76878382444651716 0.097147941686331368 0 0.77144070960558853 0.14311854477243749 0 0.72525833953073282 0.1032114801687094 0 0.80076557130237269 0.1154587552654202 0 0.76878382444651716 0.097147941686331368 0 0.77144070960558853 0.14311854477243749 0 0.76878382444651716 0.097147941686331368 0 0.80185942888501827 0.074520613036224564 0 0.7527966693318906 0.053051678021508272 0 0.81864958914740749 0.035890501779055867 0 0.80185942888501827 0.074520613036224564 0 0.78393852574753176 0.032039079577822822 0 0.80185942888501827 0.074520613036224564 0 0.78393852574753176 0.032039079577822822 0 0.7527966693318906 0.053051678021508272 0 0.78393852574753176 0.032039079577822822 0 0.7527966693318906 0.053051678021508272 0 0.74999999999934175 0 0 0.78393852574753176 0.032039079577822822 0 0.79999999999947335 0 0 0.74999999999934175 0 0 0.81864958914740749 0.035890501779055867 0 0.78393852574753176 0.032039079577822822 0 0.79999999999947335 0 0 0.81283102246527783 0.1881007222486438 0 0.8517097391133297 0.2356960729520409 0 0.79680861578956375 0.22656778056752541 0 0.81283102246527783 0.1881007222486438 0 0.8517097391133297 0.2356960729520409 0 0.85600844944842547 0.1848341897950983 0 0.81486180804364938 0.26321394949780091 0 0.8517097391133297 0.2356960729520409 0 0.79680861578956375 0.22656778056752541 0 0.90416666666668166 0.20416666666667119 0 0.8517097391133297 0.2356960729520409 0 0.85600844944842547 0.1848341897950983 0 0.88088768115941807 0.14674609810479519 0 0.85600844944842547 0.1848341897950983 0 0.82709327591102189 0.14937141670914489 0 0.88088768115941807 0.14674609810479519 0 0.84725310900442086 0.10779732082922661 0 0.82709327591102189 0.14937141670914489 0 0.81283102246527783 0.1881007222486438 0 0.85600844944842547 0.1848341897950983 0 0.82709327591102189 0.14937141670914489 0 0.81283102246527783 0.1881007222486438 0 0.77144070960558853 0.14311854477243749 0 0.76587607630038135 0.18880039518954719 0 0.81283102246527783 0.1881007222486438 0 0.82709327591102189 0.14937141670914489 0 0.77144070960558853 0.14311854477243749 0 0.80076557130237269 0.1154587552654202 0 0.82709327591102189 0.14937141670914489 0 0.77144070960558853 0.14311854477243749 0 0.77144070960558853 0.14311854477243749 0 0.76587607630038135 0.18880039518954719 0 0.72634814642510737 0.16106886917518889 0 0.76587607630038135 0.18880039518954719 0 0.79680861578956375 0.22656778056752541 0 0.75668890529066124 0.2244279804069782 0 0.81283102246527783 0.1881007222486438 0 0.76587607630038135 0.18880039518954719 0 0.79680861578956375 0.22656778056752541 0 0.77075983436335049 0.25919399014334171 0 0.81486180804364938 0.26321394949780091 0 0.79680861578956375 0.22656778056752541 0 0.77075983436335049 0.25919399014334171 0 0.79680861578956375 0.22656778056752541 0 0.75668890529066124 0.2244279804069782 0 0.77075983436335049 0.25919399014334171 0 0.75668890529066124 0.2244279804069782 0 0.72500000000000064 0.2498161764706 0 0.75668890529066124 0.2244279804069782 0 0.72500000000000064 0.2498161764706 0 0.72500000000001008 0.19776155966387679 0 0.72500000000000064 0.2498161764706 0 0.69397719155551807 0.2245125647000914 0 0.72500000000001008 0.19776155966387679 0 0.72500000000000064 0.2498161764706 0 0.69397719155551807 0.2245125647000914 0 0.67933712972090698 0.25920070958121938 0 0.69397719155551807 0.2245125647000914 0 0.72500000000001008 0.19776155966387679 0 0.6865991819015953 0.189116534044597 0 0.76587607630038135 0.18880039518954719 0 0.75668890529066124 0.2244279804069782 0 0.72500000000001008 0.19776155966387679 0 0.76587607630038135 0.18880039518954719 0 0.72500000000001008 0.19776155966387679 0 0.72634814642510737 0.16106886917518889 0 0.77144070960558853 0.14311854477243749 0 0.72634814642510737 0.16106886917518889 0 0.72525833953073282 0.1032114801687094 0 0.72634814642510737 0.16106886917518889 0 0.68391457121233579 0.14440470121196541 0 0.72525833953073282 0.1032114801687094 0 0.72500000000001008 0.19776155966387679 0 0.72634814642510737 0.16106886917518889 0 0.6865991819015953 0.189116534044597 0 0.72634814642510737 0.16106886917518889 0 0.68391457121233579 0.14440470121196541 0 0.6865991819015953 0.189116534044597 0 0.68391457121233579 0.14440470121196541 0 0.64011864159029941 0.18789607982138171 0 0.6865991819015953 0.189116534044597 0 0.68391457121233579 0.14440470121196541 0 0.65290632656860115 0.11434202593454081 0 0.6236733212988993 0.14864538214901801 0 0.68391457121233579 0.14440470121196541 0 0.64011864159029941 0.18789607982138171 0 0.6236733212988993 0.14864538214901801 0 0.64011864159029941 0.18789607982138171 0 0.65394964615507722 0.22666784374016369 0 0.59814117807200873 0.23398510860739519 0 0.65394964615507722 0.22666784374016369 0 0.59814117807200873 0.23398510860739519 0 0.62657463266645097 0.26524202571255862 0 0.69397719155551807 0.2245125647000914 0 0.65394964615507722 0.22666784374016369 0 0.67933712972090698 0.25920070958121938 0 0.64011864159029941 0.18789607982138171 0 0.65394964615507722 0.22666784374016369 0 0.6865991819015953 0.189116534044597 0 0.69397719155551807 0.2245125647000914 0 0.65394964615507722 0.22666784374016369 0 0.6865991819015953 0.189116534044597 0 0.69999999999921003 0 0 0.72683645290270404 0.027797073151180601 0 0.7010294155333181 0.056779085686491267 0 0.69999999999921003 0 0 0.7010294155333181 0.056779085686491267 0 0.66369801598854572 0.036327466368102787 0 0.7527966693318906 0.053051678021508272 0 0.74999999999934175 0 0 0.72683645290270404 0.027797073151180601 0 0.69999999999921003 0 0 0.74999999999934175 0 0 0.72683645290270404 0.027797073151180601 0 0.7527966693318906 0.053051678021508272 0 0.72683645290270404 0.027797073151180601 0 0.7010294155333181 0.056779085686491267 0 0.7010294155333181 0.056779085686491267 0 0.72525833953073282 0.1032114801687094 0 0.68330259535470161 0.10038702501083881 0 0.7527966693318906 0.053051678021508272 0 0.7010294155333181 0.056779085686491267 0 0.72525833953073282 0.1032114801687094 0 0.76878382444651716 0.097147941686331368 0 0.7527966693318906 0.053051678021508272 0 0.72525833953073282 0.1032114801687094 0 0.68391457121233579 0.14440470121196541 0 0.72525833953073282 0.1032114801687094 0 0.68330259535470161 0.10038702501083881 0 0.68330259535470161 0.10038702501083881 0 0.65290632656860115 0.11434202593454081 0 0.65408113592120842 0.073941773121567966 0 0.68391457121233579 0.14440470121196541 0 0.68330259535470161 0.10038702501083881 0 0.65290632656860115 0.11434202593454081 0 0.65290632656860115 0.11434202593454081 0 0.61956000905586006 0.1043312481793135 0 0.6236733212988993 0.14864538214901801 0 0.65290632656860115 0.11434202593454081 0 0.65408113592120842 0.073941773121567966 0 0.61956000905586006 0.1043312481793135 0 0.65408113592120842 0.073941773121567966 0 0.61940220174112337 0.047251958781050582 0 0.61956000905586006 0.1043312481793135 0 0.7010294155333181 0.056779085686491267 0 0.68330259535470161 0.10038702501083881 0 0.65408113592120842 0.073941773121567966 0 0.7010294155333181 0.056779085686491267 0 0.65408113592120842 0.073941773121567966 0 0.66369801598854572 0.036327466368102787 0 0.65408113592120842 0.073941773121567966 0 0.66369801598854572 0.036327466368102787 0 0.61940220174112337 0.047251958781050582 0 0.66369801598854572 0.036327466368102787 0 0.64999999999907843 0 0 0.61940220174112337 0.047251958781050582 0 0.69999999999921003 0 0 0.66369801598854572 0.036327466368102787 0 0.64999999999907843 0 0 0.59999999999894682 0 0 0.57396793757665954 0.037011367187645222 0 0.5499999999988151 0 0 0.64999999999907843 0 0 0.59999999999894682 0 0 0.61940220174112337 0.047251958781050582 0 0.59999999999894682 0 0 0.61940220174112337 0.047251958781050582 0 0.57396793757665954 0.037011367187645222 0 0.61940220174112337 0.047251958781050582 0 0.57396793757665954 0.037011367187645222 0 0.57667858002728545 0.078486105337742612 0 0.61940220174112337 0.047251958781050582 0 0.57667858002728545 0.078486105337742612 0 0.61956000905586006 0.1043312481793135 0 0.61956000905586006 0.1043312481793135 0 0.58516465772821369 0.11653801664834119 0 0.6236733212988993 0.14864538214901801 0 0.57667858002728545 0.078486105337742612 0 0.61956000905586006 0.1043312481793135 0 0.58516465772821369 0.11653801664834119 0 0.58516465772821369 0.11653801664834119 0 0.54979595918804436 0.1060565713905809 0 0.56202748619534593 0.15054058349222879 0 0.57667858002728545 0.078486105337742612 0 0.58516465772821369 0.11653801664834119 0 0.54979595918804436 0.1060565713905809 0 0.54979595918804436 0.1060565713905809 0 0.51076801031701946 0.1202837388510348 0 0.52375890611712683 0.059318771819432882 0 0.47881186583059909 0.093591717165689425 0 0.51076801031701946 0.1202837388510348 0 0.52375890611712683 0.059318771819432882 0 0.57667858002728545 0.078486105337742612 0 0.54979595918804436 0.1060565713905809 0 0.52375890611712683 0.059318771819432882 0 0.57396793757665954 0.037011367187645222 0 0.52375890611712683 0.059318771819432882 0 0.5499999999988151 0 0 0.57396793757665954 0.037011367187645222 0 0.57667858002728545 0.078486105337742612 0 0.52375890611712683 0.059318771819432882 0 0.49999999999869432 0 0 0.52375890611712683 0.059318771819432882 0 0.5499999999988151 0 0 0.59814117807200873 0.23398510860739519 0 0.59443395090188023 0.18455690917515069 0 0.55306006949600994 0.20198184231352201 0 0.59814117807200873 0.23398510860739519 0 0.55306006949600994 0.20198184231352201 0 0.54248833945060504 0.2520322959927106 0 0.64011864159029941 0.18789607982138171 0 0.59814117807200873 0.23398510860739519 0 0.59443395090188023 0.18455690917515069 0 0.64011864159029941 0.18789607982138171 0 0.59443395090188023 0.18455690917515069 0 0.6236733212988993 0.14864538214901801 0 0.58516465772821369 0.11653801664834119 0 0.6236733212988993 0.14864538214901801 0 0.56202748619534593 0.15054058349222879 0 0.59443395090188023 0.18455690917515069 0 0.6236733212988993 0.14864538214901801 0 0.56202748619534593 0.15054058349222879 0 0.59443395090188023 0.18455690917515069 0 0.56202748619534593 0.15054058349222879 0 0.55306006949600994 0.20198184231352201 0 0.56202748619534593 0.15054058349222879 0 0.51729576145820033 0.1683240575987815 0 0.55306006949600994 0.20198184231352201 0 0.54979595918804436 0.1060565713905809 0 0.51076801031701946 0.1202837388510348 0 0.56202748619534593 0.15054058349222879 0 0.48466639505193998 0.1421439844745814 0 0.51076801031701946 0.1202837388510348 0 0.51729576145820033 0.1683240575987815 0 0.51076801031701946 0.1202837388510348 0 0.56202748619534593 0.15054058349222879 0 0.51729576145820033 0.1683240575987815 0 0.51729576145820033 0.1683240575987815 0 0.50760557329222289 0.20700468884612061 0 0.55306006949600994 0.20198184231352201 0 0.50760557329222289 0.20700468884612061 0 0.55306006949600994 0.20198184231352201 0 0.54248833945060504 0.2520322959927106 0 0.49695729691142171 0.25014895411178018 0 0.50760557329222289 0.20700468884612061 0 0.54248833945060504 0.2520322959927106 0 0.49695729691142171 0.25014895411178018 0 0.5 0.29999999999999999 0 0.54248833945060504 0.2520322959927106 0 0.5 0.29999999999999999 0 0.54999999999999993 0.29999999999999999 0 0.52752007115234678 0.33170632466418198 0 0.5 0.29999999999999999 0 0.54999999999999993 0.29999999999999999 0 0.54248833945060504 0.2520322959927106 0 0.5 0.29999999999999999 0 0.54999999999999993 0.29999999999999999 0 0.54999999999999993 0.29999999999999999 0 0.54248833945060504 0.2520322959927106 0 0.5794309697024993 0.27124795968204829 0 0.59814117807200873 0.23398510860739519 0 0.54248833945060504 0.2520322959927106 0 0.5794309697024993 0.27124795968204829 0 0.54999999999999993 0.29999999999999999 0 0.59999999999999976 0.29999999999999999 0 0.54999999999999993 0.29999999999999999 0 0.5794309697024993 0.27124795968204829 0 0.59999999999999976 0.29999999999999999 0 0.59999999999999976 0.29999999999999999 0 0.6499999999999998 0.29999999999999999 0 0.5794309697024993 0.27124795968204829 0 0.59999999999999976 0.29999999999999999 0 0.62657463266645097 0.26524202571255862 0 0.59814117807200873 0.23398510860739519 0 0.5794309697024993 0.27124795968204829 0 0.62657463266645097 0.26524202571255862 0 0.61959173890754571 0.33832250091341232 0 0.56836770495988642 0.3523062350852913 0 0.6084546825910605 0.37989672713932537 0 0.59999999999999976 0.29999999999999999 0 0.61959173890754571 0.33832250091341232 0 0.6499999999999998 0.29999999999999999 0 0.59999999999999976 0.29999999999999999 0 0.61959173890754571 0.33832250091341232 0 0.56836770495988642 0.3523062350852913 0 0.54999999999999993 0.29999999999999999 0 0.59999999999999976 0.29999999999999999 0 0.56836770495988642 0.3523062350852913 0 0.56836770495988642 0.3523062350852913 0 0.52752007115234678 0.33170632466418198 0 0.52289427570932567 0.3932284363388488 0 0.54999999999999993 0.29999999999999999 0 0.56836770495988642 0.3523062350852913 0 0.52752007115234678 0.33170632466418198 0 0.49077833859261139 0.35229981449445641 0 0.5 0.29999999999999999 0 0.52752007115234678 0.33170632466418198 0 0.49077833859261139 0.35229981449445641 0 0.52752007115234678 0.33170632466418198 0 0.52289427570932567 0.3932284363388488 0 0.56836770495988642 0.3523062350852913 0 0.52289427570932567 0.3932284363388488 0 0.57744073070774993 0.41535148636609359 0 0.52289427570932567 0.3932284363388488 0 0.53823865529665704 0.45873898050322898 0 0.57744073070774993 0.41535148636609359 0 0.48858720058566618 0.43964267759203868 0 0.52289427570932567 0.3932284363388488 0 0.53823865529665704 0.45873898050322898 0 0.49102375406324739 0.49123754822244059 0 0.53330375813596242 0.50827942741749099 0 0.53823865529665704 0.45873898050322898 0 0.49102375406324739 0.49123754822244059 0 0.48858720058566618 0.43964267759203868 0 0.53823865529665704 0.45873898050322898 0 0.53330375813596242 0.50827942741749099 0 0.57611405284611883 0.50165903596042916 0 0.53823865529665704 0.45873898050322898 0 0.57611405284611883 0.50165903596042916 0 0.57975577671020095 0.46172033326338591 0 0.61547661924074692 0.48539576058873962 0 0.57611405284611883 0.50165903596042916 0 0.53823865529665704 0.45873898050322898 0 0.57975577671020095 0.46172033326338591 0 0.57975577671020095 0.46172033326338591 0 0.61209567303293111 0.44669033081290321 0 0.57744073070774993 0.41535148636609359 0 0.53823865529665704 0.45873898050322898 0 0.57975577671020095 0.46172033326338591 0 0.57744073070774993 0.41535148636609359 0 0.57975577671020095 0.46172033326338591 0 0.61209567303293111 0.44669033081290321 0 0.61547661924074692 0.48539576058873962 0 0.56836770495988642 0.3523062350852913 0 0.57744073070774993 0.41535148636609359 0 0.6084546825910605 0.37989672713932537 0 0.61209567303293111 0.44669033081290321 0 0.57744073070774993 0.41535148636609359 0 0.63912439215427275 0.41063340167983359 0 0.57744073070774993 0.41535148636609359 0 0.6084546825910605 0.37989672713932537 0 0.63912439215427275 0.41063340167983359 0 0.6084546825910605 0.37989672713932537 0 0.63912439215427275 0.41063340167983359 0 0.65481233915350323 0.35652751921065562 0 0.63912439215427275 0.41063340167983359 0 0.65178832218679827 0.45929119821019959 0 0.6879972333610942 0.43038561374960838 0 0.63912439215427275 0.41063340167983359 0 0.68128176404677243 0.38629093627004979 0 0.6879972333610942 0.43038561374960838 0 0.63912439215427275 0.41063340167983359 0 0.68128176404677243 0.38629093627004979 0 0.65481233915350323 0.35652751921065562 0 0.61547661924074692 0.48539576058873962 0 0.6541250972820879 0.49999999999999989 0 0.65178832218679827 0.45929119821019959 0 0.61209567303293111 0.44669033081290321 0 0.61547661924074692 0.48539576058873962 0 0.65178832218679827 0.45929119821019959 0 0.61209567303293111 0.44669033081290321 0 0.63912439215427275 0.41063340167983359 0 0.65178832218679827 0.45929119821019959 0 0.65178832218679827 0.45929119821019959 0 0.69385896817107129 0.48377516041410151 0 0.6879972333610942 0.43038561374960838 0 0.6541250972820879 0.49999999999999989 0 0.65178832218679827 0.45929119821019959 0 0.69385896817107129 0.48377516041410151 0 0.7152569930854884 0.5237994455134295 0 0.69385896817107129 0.48377516041410151 0 0.73947346780852752 0.49062440112282169 0 0.69385896817107129 0.48377516041410151 0 0.73483647259922602 0.44789725365921768 0 0.6879972333610942 0.43038561374960838 0 0.69385896817107129 0.48377516041410151 0 0.73483647259922602 0.44789725365921768 0 0.73947346780852752 0.49062440112282169 0 0.68128176404677243 0.38629093627004979 0 0.72622533758026719 0.40265885511101601 0 0.71508799138962864 0.36622814920737751 0 0.73483647259922602 0.44789725365921768 0 0.6879972333610942 0.43038561374960838 0 0.72622533758026719 0.40265885511101601 0 0.68128176404677243 0.38629093627004979 0 0.6879972333610942 0.43038561374960838 0 0.72622533758026719 0.40265885511101601 0 0.77354604466818633 0.40378688774472771 0 0.73483647259922602 0.44789725365921768 0 0.72622533758026719 0.40265885511101601 0 0.72622533758026719 0.40265885511101601 0 0.74764719760526988 0.3719647154012321 0 0.71508799138962864 0.36622814920737751 0 0.77354604466818633 0.40378688774472771 0 0.72622533758026719 0.40265885511101601 0 0.74764719760526988 0.3719647154012321 0 0.74764719760526988 0.3719647154012321 0 0.71508799138962864 0.36622814920737751 0 0.73090396928863699 0.33699297293167962 0 0.71508799138962864 0.36622814920737751 0 0.68887083591306764 0.33632058575757479 0 0.73090396928863699 0.33699297293167962 0 0.68128176404677243 0.38629093627004979 0 0.71508799138962864 0.36622814920737751 0 0.68887083591306764 0.33632058575757479 0 0.68887083591306764 0.33632058575757479 0 0.73090396928863699 0.33699297293167962 0 0.69999999999999984 0.29999999999999999 0 0.72500000000000064 0.2498161764706 0 0.74999999999999989 0.29999999999999999 0 0.69999999999999984 0.29999999999999999 0 0.74999999999999989 0.29999999999999999 0 0.69999999999999984 0.29999999999999999 0 0.73090396928863699 0.33699297293167962 0 0.74999999999999989 0.29999999999999999 0 0.69999999999999984 0.29999999999999999 0 0.77075983436335049 0.25919399014334171 0 0.72500000000000064 0.2498161764706 0 0.74999999999999989 0.29999999999999999 0 0.72500000000000064 0.2498161764706 0 0.69999999999999984 0.29999999999999999 0 0.67933712972090698 0.25920070958121938 0 0.69999999999999984 0.29999999999999999 0 0.67933712972090698 0.25920070958121938 0 0.6499999999999998 0.29999999999999999 0 0.68887083591306764 0.33632058575757479 0 0.69999999999999984 0.29999999999999999 0 0.6499999999999998 0.29999999999999999 0 0.69999999999999984 0.29999999999999999 0 0.6499999999999998 0.29999999999999999 0 0.67933712972090698 0.25920070958121938 0 0.62657463266645097 0.26524202571255862 0 0.6499999999999998 0.29999999999999999 0 0.65394964615507722 0.22666784374016369 0 0.67933712972090698 0.25920070958121938 0 0.62657463266645097 0.26524202571255862 0 0.59999999999999976 0.29999999999999999 0 0.62657463266645097 0.26524202571255862 0 0.6499999999999998 0.29999999999999999 0 0.61959173890754571 0.33832250091341232 0 0.6499999999999998 0.29999999999999999 0 0.65481233915350323 0.35652751921065562 0 0.61959173890754571 0.33832250091341232 0 0.6084546825910605 0.37989672713932537 0 0.65481233915350323 0.35652751921065562 0 0.68128176404677243 0.38629093627004979 0 0.68887083591306764 0.33632058575757479 0 0.65481233915350323 0.35652751921065562 0 0.68887083591306764 0.33632058575757479 0 0.6499999999999998 0.29999999999999999 0 0.65481233915350323 0.35652751921065562 0 
</DataArray>
</Points>
<Cells>
<DataArray type="UInt32" Name="connectivity" format="ascii">
0 1 2 3 4 5 6 7 8 9 10 11 12 13 14 15 16 17 18 19 20 21 22 23 24 25 26 27 28 29 30 31 32 33 34 35 36 37 38 39 40 41 42 43 44 45 46 47 48 49 50 51 52 53 54 55 56 57 58 59 60 61 62 63 64 65 66 67 68 69 70 71 72 73 74 75 76 77 78 79 80 81 82 83 84 85 86 87 88 89 90 91 92 93 94 95 96 97 98 99 100 101 102 103 104 105 106 107 108 109 110 111 112 113 114 115 116 117 118 119 120 121 122 123 124 125 126 127 128 129 130 131 132 133 134 135 136 137 138 139 140 141 142 143 144 145 146 147 148 149 150 151 152 153 154 155 156 157 158 159 160 161 162 163 164 165 166 167 168 169 170 171 172 173 174 175 176 177 178 179 180 181 182 183 184 185 186 187 188 189 190 191 192 193 194 195 196 197 198 199 200 201 202 203 204 205 206 207 208 209 210 211 212 213 214 215 216 217 218 219 220 221 222 223 224 225 226 227 228 229 230 231 232 233 234 235 236 237 238 239 240 241 242 243 244 245 246 247 248 249 250 251 252 253 254 255 256 257 258 259 260 261 262 263 264 265 266 267 268 269 270 271 272 273 274 275 276 277 278 279 280 281 282 283 284 285 286 287 288 289 290 291 292 293 294 295 296 297 298 299 300 301 302 303 304 305 306 307 308 309 310 311 312 313 314 315 316 317 318 319 320 321 322 323 324 325 326 327 328 329 330 331 332 333 334 335 336 337 338 339 340 341 342 343 344 345 346 347 348 349 350 351 352 353 354 355 356 357 358 359 360 361 362 363 364 365 366 367 368 369 370 371 372 373 374 375 376 377 378 379 380 381 382 383 384 385 386 387 388 389 390 391 392 393 394 395 396 397 398 399 400 401 402 403 404 405 406 407 408 409 410 411 412 413 414 415 416 417 418 419 420 421 422 423 424 425 426 427 428 429 430 431 432 433 434 435 436 437 438 439 440 441 442 443 444 445 446 447 448 449 450 451 452 453 454 455 456 457 458 459 460 461 462 463 464 465 466 467 468 469 470 471 472 473 474 475 476 477 478 479 480 481 482 483 484 485 486 487 488 489 490 491 492 493 494 495 496 497 498 499 500 501 502 503 504 505 506 507 508 509 510 511 512 513 514 515 516 517 518 519 520 521 522 523 524 525 526 527 528 529 530 531 532 533 534 535 536 537 538 539 540 541 542 543 544 545 546 547 548 549 550 551 552 553 554 555 556 557 558 559 560 561 562 563 564 565 566 567 568 569 570 571 572 573 574 575 576 577 578 579 580 581 582 583 584 585 586 587 588 589 590 591 592 593 594 595 596 597 598 599 600 601 602 603 604 605 606 607 608 609 610 611 612 613 614 615 616 617 618 619 620 621 622 623 624 625 626 627 628 629 630 631 632 633 634 635 636 637 638 639 640 641 642 643 644 645 646 647 648 649 650 651 652 653 654 655 656 657 658 659 660 661 662 663 664 665 666 667 668 669 670 671 672 673 674 675 676 677 678 679 680 681 682 683 684 685 686 687 688 689 690 691 692 693 694 695 696 697 698 699 700 701 702 703 704 705 706 707 708 709 710 711 712 713 714 715 716 717 718 719 720 721 722 723 724 725 726 727 728 729 730 731 732 733 734 735 736 737 738 739 740 741 742 743 744 745 746 747 748 749 750 751 752 753 754 755 756 757 758 759 760 761 762 763 764 765 766 767 768 769 770 771 772 773 774 775 776 777 778 779 780 781 782 783 784 785 786 787 788 789 790 791 792 793 794 795 796 797 798 799 800 801 802 803 804 805 806 807 808 809 810 811 812 813 814 815 816 817 818 819 820 821 822 823 824 825 826 827 828 829 830 831 832 833 834 835 836 837 838 839 840 841 842 843 844 845 846 847 848 849 850 851 852 853 854 855 856 857 858 859 860 861 862 863 864 865 866 867 868 869 870 871 872 873 874 875 876 877 878 879 880 881 882 883 884 885 886 887 888 889 890 891 892 893 894 895 896 897 898 899 900 901 902 903 904 905 906 907 908 909 910 911 912 913 914 915 916 917 918 919 920 921 922 923 924 925 926 927 928 929 930 931 932 933 934 935 936 937 938 939 940 941 942 943 944 945 946 947 948 949 950 951 952 953 954 955 956 957 958 959 960 961 962 963 964 965 966 967 968 969 970 971 972 973 974 975 976 977 978 979 980 981 982 983 984 985 986 987 988 989 990 991 992 993 994 995 996 997 998 999 1000 1001 1002 1003 1004 1005 1006 1007 1008 1009 1010 1011 1012 1013 1014 1015 1016 1017 1018 1019 1020 1021 1022 1023 1024 1025 1026 1027 1028 1029 1030 1031 1032 1033 1034 1035 1036 1037 1038 1039 1040 1041 1042 1043 1044 1045 1046 1047 1048 1049 1050 1051 1052 1053 1054 1055 1056 1057 1058 1059 1060 1061 1062 1063 1064 1065 1066 1067 1068 1069 1070 1071 1072 1073 1074 1075 1076 1077 1078 1079 1080 1081 1082 1083 1084 1085 1086 1087 1088 1089 1090 1091 1092 1093 1094 1095 1096 1097 1098 1099 1100 1101 1102 1103 1104 1105 1106 1107 1108 1109 1110 1111 1112 1113 1114 1115 1116 1117 1118 1119 1120 1121 1122 1123 1124 1125 1126 1127 1128 1129 1130 1131 1132 1133 1134 1135 1136 1137 1138 1139 1140 1141 1142 1143 1144 1145 1146 1147 1148 1149 1150 1151 1152 1153 1154 1155 1156 1157 1158 1159 1160 1161 1162 1163 1164 1165 1166 1167 1168 1169 1170 1171 1172 1173 1174 1175 1176 1177 1178 1179 1180 1181 1182 1183 1184 1185 1186 1187 1188 1189 1190 1191 1192 1193 1194 1195 1196 1197 1198 1199 1200 1201 1202 1203 1204 1205 1206 1207 1208 1209 1210 1211 1212 1213 1214 1215 1216 1217 1218 1219 1220 1221 1222 1223 1224 1225 1226 1227 1228 1229 1230 1231 1232 1233 1234 1235 1236 1237 1238 1239 1240 1241 1242 1243 1244 1245 1246 1247 1248 1249 1250 1251 1252 1253 1254 1255 1256 1257 1258 1259 1260 1261 1262 1263 1264 1265 1266 1267 1268 1269 1270 1271 1272 1273 1274 1275 1276 1277 1278 1279 1280 1281 1282 1283 1284 1285 1286 1287 1288 1289 1290 1291 1292 1293 1294 1295 1296 1297 1298 1299 1300 1301 1302 1303 1304 1305 1306 1307 1308 1309 1310 1311 1312 1313 1314 1315 1316 1317 1318 1319 1320 1321 1322 1323 1324 1325 1326 1327 1328 1329 1330 1331 1332 1333 1334 1335 1336 1337 1338 1339 1340 1341 1342 1343 1344 1345 1346 1347 1348 1349 1350 1351 1352 1353 1354 1355 1356 1357 1358 1359 1360 1361 1362 1363 1364 1365 1366 1367 1368 1369 1370 1371 1372 1373 1374 1375 1376 1377 1378 1379 1380 1381 1382 1383 1384 1385 1386 1387 1388 1389 1390 1391 1392 1393 1394 1395 1396 1397 1398 1399 1400 1401 1402 1403 1404 1405 1406 1407 1408 1409 1410 1411 1412 1413 1414 1415 1416 1417 1418 1419 1420 1421 1422 1423 1424 1425 1426 1427 1428 1429 1430 1431 1432 1433 1434 1435 1436 1437 1438 1439 1440 1441 1442 1443 1444 1445 1446 1447 1448 1449 1450 1451 1452 1453 1454 1455 1456 1457 1458 1459 1460 1461 1462 1463 1464 1465 1466 1467 1468 1469 1470 1471 1472 1473 1474 1475 1476 1477 1478 1479 1480 1481 1482 1483 1484 1485 1486 1487 1488 1489 1490 1491 1492 1493 1494 1495 1496 1497 1498 1499 1500 1501 1502 1503 1504 1505 1506 1507 1508 1509 1510 1511 1512 1513 1514 1515 1516 1517 1518 1519 1520 1521 1522 1523 1524 1525 1526 1527 1528 1529 1530 1531 1532 1533 1534 1535 1536 1537 1538 1539 1540 1541 1542 1543 1544 1545 1546 1547 1548 1549 1550 1551 1552 1553 1554 1555 1556 1557 1558 1559 1560 1561 1562 1563 1564 1565 1566 1567 1568 1569 1570 1571 1572 1573 1574 1575 1576 1577 1578 1579 1580 1581 1582 1583 1584 1585 1586 1587 1588 1589 1590 1591 1592 1593 1594 1595 1596 1597 1598 1599 1600 1601 1602 1603 1604 1605 1606 1607 1608 1609 1610 1611 1612 1613 1614 1615 1616 1617 1618 1619 1620 1621 1622 1623 1624 1625 1626 1627 1628 1629 1630 1631 1632 1633 1634 1635 1636 1637 1638 1639 1640 1641 1642 1643 1644 1645 1646 1647 1648 1649 1650 1651 1652 1653 1654 1655 1656 1657 1658 1659 1660 1661 1662 1663 1664 1665 1666 1667 1668 1669 1670 1671 1672 1673 1674 1675 1676 1677 1678 1679 1680 1681 1682 1683 1684 1685 1686 1687 1688 1689 1690 1691 1692 1693 1694 1695 1696 1697 1698 1699 1700 1701 1702 1703 1704 1705 1706 1707 1708 1709 1710 1711 1712 1713 1714 1715 1716 1717 1718 1719 1720 1721 1722 1723 1724 1725 1726 1727 1728 1729 1730 1731 1732 1733 1734 1735 1736 1737 1738 1739 1740 1741 1742 1743 1744 1745 1746 1747 1748 1749 1750 1751 1752 1753 1754 1755 1756 1757 1758 1759 1760 1761 1762 1763 1764 1765 1766 1767 1768 1769 1770 1771 1772 1773 1774 1775 1776 1777 1778 1779 1780 1781 1782 1783 1784 1785 1786 1787 1788 1789 1790 1791 1792 1793 1794 1795 1796 1797 1798 1799 1800 1801 1802 1803 1804 1805 1806 1807 1808 1809 1810 1811 1812 1813 1814 1815 1816 1817 1818 1819 1820 1821 1822 1823 1824 1825 1826 1827 1828 1829 1830 1831 1832 1833 1834 1835 1836 1837 1838 1839 1840 1841 1842 1843 1844 1845 1846 1847 1848 1849 1850 1851 1852 1853 1854 1855 1856 1857 1858 1859 1860 1861 1862 1863 1864 1865 1866 1867 1868 1869 1870 1871 1872 1873 1874 1875 1876 1877 1878 1879 1880 1881 1882 1883 1884 1885 1886 1887 1888 1889 1890 1891 1892 1893 1894 1895 1896 1897 1898 1899 1900 1901 1902 1903 1904 1905 1906 1907 1908 1909 1910 1911 1912 1913 1914 1915 1916 1917 1918 1919 1920 1921 1922 1923 1924 1925 1926 1927 1928 1929 1930 1931 1932 1933 1934 1935 1936 1937 1938 1939 1940 1941 1942 1943 1944 1945 1946 1947 1948 1949 1950 1951 1952 1953 1954 1955 1956 1957 1958 1959 1960 1961 1962 1963 1964 1965 1966 1967 1968 1969 1970 1971 1972 1973 1974 1975 1976 1977 1978 1979 1980 1981 1982 1983 1984 1985 1986 1987 1988 1989 1990 1991 1992 1993 1994 1995 1996 1997 1998 1999 2000 2001 2002 2003 2004 2005 2006 2007 2008 2009 2010 2011 2012 2013 2014 2015 2016 2017 2018 2019 2020 2021 2022 2023 2024 2025 2026 2027 2028 2029 2030 2031 2032 2033 2034 2035 2036 2037 2038 2039 2040 2041 2042 2043 2044 2045 2046 2047 2048 2049 2050 2051 2052 2053 2054 2055 2056 2057 2058 2059 2060 2061 2062 2063 2064 2065 2066 2067 2068 2069 2070 2071 2072 2073 2074 2075 2076 2077 2078 2079 2080 2081 2082 2083 2084 2085 2086 2087 2088 2089 2090 2091 2092 2093 2094 2095 2096 2097 2098 2099 2100 2101 2102 2103 2104 2105 2106 2107 2108 2109 2110 2111 2112 2113 2114 2115 2116 2117 2118 2119 2120 2121 2122 2123 2124 2125 2126 2127 2128 2129 2130 2131 2132 2133 2134 2135 2136 2137 2138 2139 2140 2141 2142 2143 2144 2145 2146 2147 2148 2149 2150 2151 2152 2153 2154 2155 2156 2157 2158 2159 2160 2161 2162 2163 2164 2165 2166 2167 2168 2169 2170 2171 2172 2173 2174 2175 2176 2177 2178 2179 2180 2181 2182 2183 2184 2185 2186 2187 2188 2189 2190 2191 2192 2193 2194 2195 2196 2197 2198 2199 2200 2201 2202 2203 2204 2205 2206 2207 2208 2209 2210 2211 2212 2213 2214 2215 2216 2217 2218 2219 2220 2221 2222 2223 2224 2225 2226 2227 2228 2229 2230 2231 2232 2233 2234 2235 2236 2237 2238 2239 2240 2241 2242 2243 2244 2245 2246 2247 2248 2249 2250 2251 2252 2253 2254 2255 2256 2257 2258 2259 2260 2261 2262 2263 2264 2265 2266 2267 2268 2269 2270 2271 2272 2273 2274 2275 2276 2277 2278 2279 2280 2281 2282 2283 2284 2285 2286 2287 2288 2289 2290 2291 2292 2293 2294 2295 2296 2297 2298 2299 2300 2301 2302 2303 2304 2305 2306 2307 2308 2309 2310 2311 2312 2313 2314 2315 2316 2317 2318 2319 2320 2321 2322 2323 2324 2325 2326 2327 2328 2329 2330 2331 2332 2333 2334 2335 2336 2337 2338 2339 2340 2341 2342 2343 2344 2345 2346 2347 2348 2349 2350 2351 2352 2353 2354 2355 2356 2357 2358 2359 2360 2361 2362 2363 2364 2365 2366 2367 2368 2369 2370 2371 2372 2373 2374 2375 2376 2377 2378 2379 2380 2381 2382 2383 2384 2385 2386 2387 2388 2389 2390 2391 2392 2393 2394 2395 2396 2397 2398 2399 2400 2401 2402 2403 2404 2405 2406 2407 2408 2409 2410 2411 2412 2413 2414 2415 2416 2417 2418 2419 2420 2421 2422 2423 2424 2425 2426 2427 2428 2429 2430 2431 2432 2433 2434 2435 2436 2437 2438 2439 2440 2441 2442 2443 2444 2445 2446 2447 2448 2449 2450 2451 2452 2453 2454 2455 2456 2457 2458 2459 2460 2461 2462 2463 2464 2465 2466 2467 2468 2469 2470 2471 2472 2473 2474 2475 2476 2477 2478 2479 2480 2481 2482 2483 2484 2485 2486 2487 2488 2489 2490 2491 2492 2493 2494 2495 2496 2497 2498 2499 2500 2501 2502 2503 2504 2505 2506 2507 2508 2509 2510 2511 2512 2513 2514 2515 2516 2517 2518 2519 2520 2521 2522 2523 2524 2525 2526 2527 2528 2529 2530 2531 2532 2533 2534 2535 2536 2537 2538 2539 2540 2541 2542 2543 2544 2545 2546 2547 2548 2549 2550 2551 2552 2553 2554 2555 2556 2557 2558 2559 2560 2561 2562 2563 2564 2565 2566 2567 2568 2569 2570 2571 2572 2573 2574 2575 2576 2577 2578 2579 2580 2581 2582 2583 2584 2585 2586 2587 2588 2589 2590 2591 2592 2593 2594 2595 2596 2597 2598 2599 2600 2601 2602 2603 2604 2605 2606 2607 2608 2609 2610 2611 2612 2613 2614 2615 2616 2617 2618 2619 2620 2621 2622 2623 2624 2625 2626 2627 2628 2629 2630 2631 2632 2633 2634 2635 2636 2637 2638 2639 2640 2641 2642 2643 2644 2645 2646 2647 2648 2649 2650 2651 2652 2653 2654 2655 2656 2657 2658 2659 2660 2661 2662 2663 2664 2665 2666 2667 2668 2669 2670 2671 2672 2673 2674 2675 2676 2677 2678 2679 2680 2681 2682 2683 2684 2685 2686 2687 2688 2689 2690 2691 2692 2693 2694 2695 2696 2697 2698 2699 2700 2701 2702 2703 2704 2705 2706 2707 2708 2709 2710 2711 2712 2713 2714 2715 2716 2717 2718 2719 2720 2721 2722 2723 2724 2725 2726 2727 2728 2729 2730 2731 2732 2733 2734 2735 2736 2737 2738 2739 2740 2741 2742 2743 2744 2745 2746 2747 2748 2749 2750 2751 2752 2753 2754 2755 2756 2757 2758 2759 2760 2761 2762 2763 2764 2765 2766 2767 2768 2769 2770 2771 2772 2773 2774 2775 2776 2777 2778 2779 2780 2781 2782 2783 2784 2785 2786 2787 2788 2789 2790 2791 2792 2793 2794 2795 2796 2797 2798 2799 2800 2801 2802 2803 2804 2805 2806 2807 2808 2809 2810 2811 2812 2813 2814 2815 2816 2817 2818 2819 2820 2821 2822 2823 2824 2825 2826 2827 2828 2829 2830 2831 2832 2833 2834 2835 2836 2837 2838 2839 2840 2841 2842 2843 2844 2845 2846 2847 2848 2849 2850 2851 2852 2853 2854 2855 2856 2857 2858 2859 2860 2861 2862 2863 2864 2865 2866 2867 2868 2869 2870 2871 2872 2873 2874 2875 2876 2877 2878 2879 2880 2881 2882 2883 2884 2885 2886 2887 2888 2889 2890 2891 2892 2893 2894 2895 2896 2897 2898 2899 2900 2901 2902 2903 2904 2905 2906 2907 2908 2909 2910 2911 2912 2913 2914 2915 2916 2917 2918 2919 2920 2921 2922 2923 2924 2925 2926 2927 2928 2929 2930 2931 2932 2933 2934 2935 2936 2937 2938 2939 2940 2941 2942 2943 2944 2945 2946 2947 2948 2949 2950 2951 2952 2953 2954 2955 2956 2957 2958 2959 2960 2961 2962 2963 2964 2965 2966 2967 2968 2969 2970 2971 2972 2973 2974 2975 2976 2977 2978 2979 2980 2981 2982 2983 2984 2985 2986 2987 2988 2989 2990 2991 2992 2993 2994 2995 2996 2997 2998 2999 3000 3001 3002 3003 3004 3005 3006 3007 3008 3009 3010 3011 3012 3013 3014 3015 3016 3017 3018 3019 3020 3021 3022 3023 3024 3025 3026 3027 3028 3029 3030 3031 3032 3033 3034 3035 3036 3037 3038 3039 3040 3041 3042 3043 3044 3045 3046 3047 3048 3049 3050 3051 3052 3053 3054 3055 3056 3057 3058 3059 3060 3061 3062 3063 3064 3065 3066 3067 3068 3069 3070 3071 3072 3073 3074 3075 3076 3077 3078 3079 3080 3081 3082 3083 3084 3085 3086 3087 3088 3089 3090 3091 3092 3093 3094 3095 3096 3097 3098 3099 3100 3101 3102 3103 3104 3105 3106 3107 3108 3109 3110 3111 3112 3113 3114 3115 3116 3117 3118 3119 3120 3121 3122 3123 3124 3125 3126 3127 3128 3129 3130 3131 3132 3133 3134 3135 3136 3137 3138 3139 3140 3141 
</DataArray>
<DataArray type="UInt32" Name="offsets" format="ascii">
3 6 9 12 15 18 21 24 27 30 33 36 39 42 45 48 51 54 57 60 63 66 69 72 75 78 81 84 87 90 93 96 99 102 105 108 111 114 117 120 123 126 129 132 135 138 141 144 147 150 153 156 159 162 165 168 171 174 177 180 183 186 189 192 195 198 201 204 207 210 213 216 219 222 225 228 231 234 237 240 243 246 249 252 255 258 261 264 267 270 273 276 279 282 285 288 291 294 297 300 303 306 309 312 315 318 321 324 327 330 333 336 339 342 345 348 351 354 357 360 363 366 369 372 375 378 381 384 387 390 393 396 399 402 405 408 411 414 417 420 423 426 429 432 435 438 441 444 447 450 453 456 459 462 465 468 471 474 477 480 483 486 489 492 495 498 501 504 507 510 513 516 519 522 525 528 531 534 537 540 543 546 549 552 555 558 561 564 567 570 573 576 579 582 585 588 591 594 597 600 603 606 609 612 615 618 621 624 627 630 633 636 639 642 645 648 651 654 657 660 663 666 669 672 675 678 681 684 687 690 693 696 699 702 705 708 711 714 717 720 723 726 729 732 735 738 741 744 747 750 753 756 759 762 765 768 771 774 777 780 783 786 789 792 795 798 801 804 807 810 813 816 819 822 825 828 831 834 837 840 843 846 849 852 855 858 861 864 867 870 873 876 879 882 885 888 891 894 897 900 903 906 909 912 915 918 921 924 927 930 933 936 939 942 945 948 951 954 957 960 963 966 969 972 975 978 981 984 987 990 993 996 999 1002 1005 1008 1011 1014 1017 1020 1023 1026 1029 1032 1035 1038 1041 1044 1047 1050 1053 1056 1059 1062 1065 1068 1071 1074 1077 1080 1083 1086 1089 1092 1095 1098 1101 1104 1107 1110 1113 1116 1119 1122 1125 1128 1131 1134 1137 1140 1143 1146 1149 1152 1155 1158 1161 1164 1167 1170 1173 1176 1179 1182 1185 1188 1191 1194 1197 1200 1203 1206 1209 1212 1215 1218 1221 1224 1227 1230 1233 1236 1239 1242 1245 1248 1251 1254 1257 1260 1263 1266 1269 1272 1275 1278 1281 1284 1287 1290 1293 1296 1299 1302 1305 1308 1311 1314 1317 1320 1323 1326 1329 1332 1335 1338 1341 1344 1347 1350 1353 1356 1359 1362 1365 1368 1371 1374 1377 1380 1383 1386 1389 1392 1395 1398 1401 1404 1407 1410 1413 1416 1419 1422 1425 1428 1431 1434 1437 1440 1443 1446 1449 1452 1455 1458 1461 1464 1467 1470 1473 1476 1479 1482 1485 1488 1491 1494 1497 1500 1503 1506 1509 1512 1515 1518 1521 1524 1527 1530 1533 1536 1539 1542 1545 1548 1551 1554 1557 1560 1563 1566 1569 1572 1575 1578 1581 1584 1587 1590 1593 1596 1599 1602 1605 1608 1611 1614 1616 1619 1622 1624 1627 1630 1632 1635 1638 1641 1644 1647 1650 1653 1656 1659 1662 1665 1668 1671 1673 1676 1679 1682 1685 1688 1690 1693 1696 1699 1702 1705 1708 1711 1714 1717 1720 1723 1726 1729 1732 1735 1738 1741 1744 1747 1750 1753 1756 1759 1762 1765 1768 1771 1774 1777 1780 1783 1786 1789 1792 1795 1798 1801 1804 1807 1810 1813 1816 1819 1822 1825 1828 1831 1834 1837 1840 1843 1846 1849 1852 1855 1858 1861 1864 1867 1870 1873 1876 1879 1882 1885 1888 1891 1894 1897 1900 1903 1906 1909 1912 1915 1918 1921 1924 1927 1930 1933 1936 1939 1942 1945 1948 1951 1954 1957 1960 1963 1966 1969 1972 1975 1978 1981 1984 1987 1990 1993 1996 1999 2002 2005 2008 2011 2014 2017 2020 2023 2026 2029 2032 2035 2038 2041 2044 2047 2050 2053 2056 2059 2062 2065 2068 2071 2074 2077 2080 2083 2086 2089 2092 2095 2098 2101 2104 2107 2110 2113 2116 2119 2122 2125 2128 2131 2134 2137 2140 2143 2146 2149 2152 2155 2158 2161 2164 2167 2170 2173 2176 2179 2182 2185 2188 2191 2194 2196 2199 2202 2205 2207 2210 2213 2215 2218 2221 2224 2227 2230 2233 2236 2239 2242 2245 2248 2250 2253 2256 2259 2262 2264 2267 2270 2273 2276 2279 2282 2285 2288 2291 2294 2297 2300 2303 2306 2309 2312 2315 2318 2321 2324 2327 2330 2333 2336 2339 2342 2345 2348 2351 2354 2357 2360 2363 2366 2369 2372 2375 2378 2381 2384 2387 2390 2393 2396 2399 2402 2405 2408 2411 2414 2417 2420 2423 2426 2429 2432 2435 2438 2440 2443 2446 2449 2452 2455 2458 2461 2464 2467 2470 2473 2476 2479 2482 2484 2487 2490 2492 2495 2497 2500 2503 2506 2509 2512 2515 2518 2521 2524 2527 2530 2533 2536 2538 2541 2544 2547 2550 2553 2556 2559 2562 2565 2568 2571 2574 2577 2580 2583 2586 2589 2592 2595 2598 2601 2604 2607 2610 2613 2616 2619 2622 2625 2628 2631 2634 2637 2640 2643 2646 2649 2652 2655 2658 2661 2664 2667 2670 2673 2676 2679 2682 2685 2688 2691 2694 2697 2700 2703 2706 2709 2712 2715 2718 2721 2724 2727 2730 2733 2736 2739 2742 2745 2748 2751 2754 2757 2760 2763 2766 2769 2772 2775 2778 2781 2784 2787 2790 2793 2796 2799 2802 2805 2808 2811 2814 2817 2820 2823 2826 2829 2832 2835 2838 2841 2844 2847 2850 2853 2856 2859 2862 2865 2868 2871 2874 2877 2880 2883 2886 2889 2892 2895 2898 2901 2904 2907 2910 2913 2916 2919 2922 2925 2928 2931 2934 2937 2940 2943 2946 2948 2951 2954 2956 2959 2961 2964 2967 2970 2973 2976 2979 2982 2985 2988 2991 2994 2997 3000 3003 3006 3009 3012 3015 3018 3021 3024 3027 3030 3033 3036 3039 3042 3045 3048 3051 3054 3057 3060 3063 3066 3069 3072 3075 3078 3081 3084 3087 3090 3093 3096 3099 3102 3104 3107 3110 3113 3116 3119 3121 3124 3127 3130 3133 3136 3139 3142 
</DataArray>
<DataArray type="UInt32" Name="types" format="ascii">
5 5 5 5 5 5 5 5 5 5 5 5 5 5 5 5 5 5 5 5 5 5 5 5 5 5 5 5 5 5 5 5 5 5 5 5 5 5 5 5 5 5 5 5 5 5 5 5 5 5 5 5 5 5 5 5 5 5 5 5 5 5 5 5 5 5 5 5 5 5 5 5 5 5 5 5 5 5 5 5 5 5 5 5 5 5 5 5 5 5 5 5 5 5 5 5 5 5 5 5 5 5 5 5 5 5 5 5 5 5 5 5 5 5 5 5 5 5 5 5 5 5 5 5 5 5 5 5 5 5 5 5 5 5 5 5 5 5 5 5 5 5 5 5 5 5 5 5 5 5 5 5 5 5 5 5 5 5 5 5 5 5 5 5 5 5 5 5 5 5 5 5 5 5 5 5 5 5 5 5 5 5 5 5 5 5 5 5 5 5 5 5 5 5 5 5 5 5 5 5 5 5 5 5 5 5 5 5 5 5 5 5 5 5 5 5 5 5 5 5 5 5 5 5 5 5 5 5 5 5 5 5 5 5 5 5 5 5 5 5 5 5 5 5 5 5 5 5 5 5 5 5 5 5 5 5 5 5 5 5 5 5 5 5 5 5 5 5 5 5 5 5 5 5 5 5 5 5 5 5 5 5 5 5 5 5 5 5 5 5 5 5 5 5 5 5 5 5 5 5 5 5 5 5 5 5 5 5 5 5 5 5 5 5 5 5 5 5 5 5 5 5 5 5 5 5 5 5 5 5 5 5 5 5 5 5 5 5 5 5 5 5 5 5 5 5 5 5 5 5 5 5 5 5 5 5 5 5 5 5 5 5 5 5 5 5 5 5 5 5 5 5 5 5 5 5 5 5 5 5 5 5 5 5 5 5 5 5 5 5 5 5 5 5 5 5 5 5 5 5 5 5 5 5 5 5 5 5 5 5 5 5 5 5 5 5 5 5 5 5 5 5 5 5 5 5 5 5 5 5 5 5 5 5 5 5 5 5 5 5 5 5 5 5 5 5 5 5 5 5 5 5 5 5 5 5 5 5 5 5 5 5 5 5 5 5 5 5 5 5 5 5 5 5 5 5 5 5 5 5 5 5 5 5 5 5 5 5 5 5 5 5 5 5 5 5 5 5 5 5 5 5 5 5 5 5 5 5 5 5 5 5 5 5 5 5 5 5 5 5 5 5 5 5 5 5 5 5 5 5 5 5 5 5 5 5 5 5 3 5 5 3 5 5 3 5 5 5 5 5 5 5 5 5 5 5 5 5 3 5 5 5 5 5 3 5 5 5 5 5 5 5 5 5 5 5 5 5 5 5 5 5 5 5 5 5 5 5 5 5 5 5 5 5 5 5 5 5 5 5 5 5 5 5 5 5 5 5 5 5 5 5 5 5 5 5 5 5 5 5 5 5 5 5 5 5 5 5 5 5 5 5 5 5 5 5 5 5 5 5 5 5 5 5 5 5 5 5 5 5 5 5 5 5 5 5 5 5 5 5 5 5 5 5 5 5 5 5 5 5 5 5 5 5 5 5 5 5 5 5 5 5 5 5 5 5 5 5 5 5 5 5 5 5 5 5 5 5 5 5 5 5 5 5 5 5 5 5 5 5 5 5 5 5 5 5 5 5 5 5 5 5 5 5 5 5 5 5 5 5 5 5 5 3 5 5 5 3 5 5 3 5 5 5 5 5 5 5 5 5 5 5 3 5 5 5 5 3 5 5 5 5 5 5 5 5 5 5 5 5 5 5 5 5 5 5 5 5 5 5 5 5 5 5 5 5 5 5 5 5 5 5 5 5 5 5 5 5 5 5 5 5 5 5 5 5 5 5 5 5 5 5 5 5 5 5 3 5 5 5 5 5 5 5 5 5 5 5 5 5 5 3 5 5 3 5 3 5 5 5 5 5 5 5 5 5 5 5 5 5 3 5 5 5 5 5 5 5 5 5 5 5 5 5 5 5 5 5 5 5 5 5 5 5 5 5 5 5 5 5 5 5 5 5 5 5 5 5 5 5 5 5 5 5 5 5 5 5 5 5 5 5 5 5 5 5 5 5 5 5 5 5 5 5 5 5 5 5 5 5 5 5 5 5 5 5 5 5 5 5 5 5 5 5 5 5 5 5 5 5 5 5 5 5 5 5 5 5 5 5 5 5 5 5 5 5 5 5 5 5 5 5 5 5 5 5 5 5 5 5 5 5 5 5 5 5 5 5 5 5 5 5 5 5 5 5 5 3 5 5 3 5 3 5 5 5 5 5 5 5 5 5 5 5 5 5 5 5 5 5 5 5 5 5 5 5 5 5 5 5 5 5 5 5 5 5 5 5 5 5 5 5 5 5 5 5 5 5 5 5 3 5 5 5 5 5 3 5 5 5 5 5 5 5 
</DataArray>
</Cells>
<PointData Scalars="" Vectors="displacement," Tensors="">
<DataArray type="Float64" Name="displacement" NumberOfComponents="3" format="ascii">
-6.2353834723879566e-07 1.1113848538349448e-07 0 -1.2496077654656814e-09 -5.1544424795159469e-10 0 -1.3991226551599348e-06 -7.0388641255177308e-08 0 -6.2353834723879566e-07 1.1113848538349448e-07 0 -1.2496077654656814e-09 -5.1544424795159469e-10 0 -1.081939954156647e-09 3.4321724784450167e-10 0 -6.2353834723879566e-07 1.1113848538349448e-07 0 -1.3991226551599348e-06 -7.0388641255177308e-08 0 -1.3741364337879562e-06 4.8099629014362314e-07 0 -6.2353834723879566e-07 1.1113848538349448e-07 0 -1.3741364337879562e-06 4.8099629014362314e-07 0 -1.081939954156647e-09 3.4321724784450167e-10 0 -1.081939954156647e-09 3.4321724784450167e-10 0 -1.0538962945598179e-09 1.7916557357524041e-10 0 -8.6387084361143053e-07 7.3761235785038749e-07 0 -1.0538962945598179e-09 1.7916557357524041e-10 0 -8.6387084361143053e-07 7.3761235785038749e-07 0 -5.4423571681545291e-10 6.0646524337499127e-10 0 -1.3741364337879562e-06 4.8099629014362314e-07 0 -8.6387084361143053e-07 7.3761235785038749e-07 0 -1.8892132573545826e-06 1.0717390072283491e-06 0 -1.3741364337879562e-06 4.8099629014362314e-07 0 -1.081939954156647e-09 3.4321724784450167e-10 0 -8.6387084361143053e-07 7.3761235785038749e-07 0 -8.6387084361143053e-07 7.3761235785038749e-07 0 -1.8892132573545826e-06 1.0717390072283491e-06 0 -9.8020769512176058e-07 1.2228302371211946e-06 0 -1.8892132573545826e-06 1.0717390072283491e-06 0 -9.8020769512176058e-07 1.2228302371211946e-06 0 -1.898512167656993e-06 1.5053909981679492e-06 0 -1.8892132573545826e-06 1.0717390072283491e-06 0 -2.905823528590119e-06 1.3305294426002705e-06 0 -1.898512167656993e-06 1.5053909981679492e-06 0 -2.905823528590119e-06 1.3305294426002705e-06 0 -1.898512167656993e-06 1.5053909981679492e-06 0 -2.2724626673961218e-06 1.7111117933179274e-06 0 -2.905823528590119e-06 1.3305294426002705e-06 0 -2.9518932487514556e-06 7.4496038360793877e-07 0 -4.1853248874209675e-06 9.823820900966428e-07 0 -1.8892132573545826e-06 1.0717390072283491e-06 0 -2.905823528590119e-06 1.3305294426002705e-06 0 -2.9518932487514556e-06 7.4496038360793877e-07 0 -2.9518932487514556e-06 7.4496038360793877e-07 0 -3.0892028915350834e-06 1.8927343060464227e-07 0 -5.1371679505909763e-06 2.1944332503597283e-07 0 -1.3991226551599348e-06 -7.0388641255177308e-08 0 -1.3741364337879562e-06 4.8099629014362314e-07 0 -3.0892028915350834e-06 1.8927343060464227e-07 0 -1.3741364337879562e-06 4.8099629014362314e-07 0 -2.9518932487514556e-06 7.4496038360793877e-07 0 -3.0892028915350834e-06 1.8927343060464227e-07 0 -1.3741364337879562e-06 4.8099629014362314e-07 0 -1.8892132573545826e-06 1.0717390072283491e-06 0 -2.9518932487514556e-06 7.4496038360793877e-07 0 -1.1709030194479343e-07 1.0270686788176824e-06 0 -3.2709333737046128e-10 4.1256726579404409e-10 0 5.7086600128284243e-12 5.1274277902738274e-10 0 -1.1709030194479343e-07 1.0270686788176824e-06 0 -3.2709333737046128e-10 4.1256726579404409e-10 0 -3.3528489853380085e-07 8.6375982961117277e-07 0 -1.1709030194479343e-07 1.0270686788176824e-06 0 -3.3528489853380085e-07 8.6375982961117277e-07 0 -5.7604653954206659e-07 1.5721665638990576e-06 0 -3.3528489853380085e-07 8.6375982961117277e-07 0 -5.4423571681545291e-10 6.0646524337499127e-10 0 -9.8020769512176058e-07 1.2228302371211946e-06 0 -8.6387084361143053e-07 7.3761235785038749e-07 0 -5.4423571681545291e-10 6.0646524337499127e-10 0 -9.8020769512176058e-07 1.2228302371211946e-06 0 -3.3528489853380085e-07 8.6375982961117277e-07 0 -9.8020769512176058e-07 1.2228302371211946e-06 0 -5.7604653954206659e-07 1.5721665638990576e-06 0 -3.2709333737046128e-10 4.1256726579404409e-10 0 -3.3528489853380085e-07 8.6375982961117277e-07 0 -5.4423571681545291e-10 6.0646524337499127e-10 0 -9.8020769512176058e-07 1.2228302371211946e-06 0 -1.898512167656993e-06 1.5053909981679492e-06 0 -1.3317522640410163e-06 1.6923003482885846e-06 0 -1.898512167656993e-06 1.5053909981679492e-06 0 -1.3317522640410163e-06 1.6923003482885846e-06 0 -2.2724626673961218e-06 1.7111117933179274e-06 0 -9.8020769512176058e-07 1.2228302371211946e-06 0 -1.3317522640410163e-06 1.6923003482885846e-06 0 -5.7604653954206659e-07 1.5721665638990576e-06 0 -5.7604653954206659e-07 1.5721665638990576e-06 0 1.7713029319340822e-08 1.7253729669760162e-06 0 -8.5560929710119181e-07 1.9188653014406365e-06 0 -1.3317522640410163e-06 1.6923003482885846e-06 0 -5.7604653954206659e-07 1.5721665638990576e-06 0 -8.5560929710119181e-07 1.9188653014406365e-06 0 -1.1709030194479343e-07 1.0270686788176824e-06 0 -5.7604653954206659e-07 1.5721665638990576e-06 0 1.7713029319340822e-08 1.7253729669760162e-06 0 -1.1709030194479343e-07 1.0270686788176824e-06 0 1.7713029319340822e-08 1.7253729669760162e-06 0 1.9070023193198408e-07 1.1053477514852107e-06 0 1.7713029319340822e-08 1.7253729669760162e-06 0 -3.9424129084031789e-09 1.9040795785359429e-06 0 -8.5560929710119181e-07 1.9188653014406365e-06 0 -2.0366861422279934e-07 1.8130869626707965e-06 0 -3.9424129084031789e-09 1.9040795785359429e-06 0 -8.5560929710119181e-07 1.9188653014406365e-06 0 -2.0366861422279934e-07 1.8130869626707965e-06 0 -8.5560929710119181e-07 1.9188653014406365e-06 0 -1.612796403289071e-06 1.7317060269828476e-06 0 -1.612796403289071e-06 1.7317060269828476e-06 0 -2.2724626673961218e-06 1.7111117933179274e-06 0 -3.1527550424657841e-06 1.4632250299926047e-06 0 -1.3317522640410163e-06 1.6923003482885846e-06 0 -8.5560929710119181e-07 1.9188653014406365e-06 0 -2.2724626673961218e-06 1.7111117933179274e-06 0 -8.5560929710119181e-07 1.9188653014406365e-06 0 -1.612796403289071e-06 1.7317060269828476e-06 0 -2.2724626673961218e-06 1.7111117933179274e-06 0 -2.2724626673961218e-06 1.7111117933179274e-06 0 -3.1527550424657841e-06 1.4632250299926047e-06 0 -3.6975636611645791e-06 1.3438514505588281e-06 0 -3.1527550424657841e-06 1.4632250299926047e-06 0 -4.4734813326241736e-06 7.9955750332947765e-07 0 -2.236928935548742e-06 1.2659359148519653e-06 0 -4.4734813326241736e-06 7.9955750332947765e-07 0 -2.236928935548742e-06 1.2659359148519653e-06 0 -3.6320940986019201e-06 4.0449082219136381e-07 0 -2.236928935548742e-06 1.2659359148519653e-06 0 -3.6320940986019201e-06 4.0449082219136381e-07 0 -2.0476962369795735e-06 3.5817501743966857e-07 0 -1.612796403289071e-06 1.7317060269828476e-06 0 -3.1527550424657841e-06 1.4632250299926047e-06 0 -2.236928935548742e-06 1.2659359148519653e-06 0 -2.0366861422279934e-07 1.8130869626707965e-06 0 -1.612796403289071e-06 1.7317060269828476e-06 0 -6.7447402427127497e-07 1.3001824957734857e-06 0 -1.612796403289071e-06 1.7317060269828476e-06 0 -2.236928935548742e-06 1.2659359148519653e-06 0 -6.7447402427127497e-07 1.3001824957734857e-06 0 -2.236928935548742e-06 1.2659359148519653e-06 0 -6.7447402427127497e-07 1.3001824957734857e-06 0 -2.0476962369795735e-06 3.5817501743966857e-07 0 -6.7447402427127497e-07 1.3001824957734857e-06 0 7.6900927946853358e-07 7.5193548547109e-07 0 8.8512193765446039e-07 1.4960284043858566e-06 0 -2.0366861422279934e-07 1.8130869626707965e-06 0 -6.7447402427127497e-07 1.3001824957734857e-06 0 8.8512193765446039e-07 1.4960284043858566e-06 0 -6.0146431829814132e-06 4.8670331830790209e-07 0 -5.1371679505909763e-06 2.1944332503597283e-07 0 -4.1853248874209675e-06 9.823820900966428e-07 0 -6.0146431829814132e-06 4.8670331830790209e-07 0 -4.1853248874209675e-06 9.823820900966428e-07 0 -5.2845411757373955e-06 8.9535076696746659e-07 0 -6.0146431829814132e-06 4.8670331830790209e-07 0 -5.1371679505909763e-06 2.1944332503597283e-07 0 -7.5518893591334336e-06 -2.8642877241495106e-07 0 -2.9518932487514556e-06 7.4496038360793877e-07 0 -5.1371679505909763e-06 2.1944332503597283e-07 0 -4.1853248874209675e-06 9.823820900966428e-07 0 -2.905823528590119e-06 1.3305294426002705e-06 0 -4.1853248874209675e-06 9.823820900966428e-07 0 -3.6975636611645791e-06 1.3438514505588281e-06 0 -2.905823528590119e-06 1.3305294426002705e-06 0 -2.2724626673961218e-06 1.7111117933179274e-06 0 -3.6975636611645791e-06 1.3438514505588281e-06 0 -3.1527550424657841e-06 1.4632250299926047e-06 0 -3.6975636611645791e-06 1.3438514505588281e-06 0 -5.2845411757373955e-06 8.9535076696746659e-07 0 -4.1853248874209675e-06 9.823820900966428e-07 0 -3.6975636611645791e-06 1.3438514505588281e-06 0 -5.2845411757373955e-06 8.9535076696746659e-07 0 -3.1527550424657841e-06 1.4632250299926047e-06 0 -4.4734813326241736e-06 7.9955750332947765e-07 0 -5.2845411757373955e-06 8.9535076696746659e-07 0 -4.4734813326241736e-06 7.9955750332947765e-07 0 -5.2845411757373955e-06 8.9535076696746659e-07 0 -6.5278107611890272e-06 1.6339288033357687e-07 0 -4.4734813326241736e-06 7.9955750332947765e-07 0 -6.5278107611890272e-06 1.6339288033357687e-07 0 -6.0861622077041521e-06 -4.0562850259369596e-07 0 -5.2845411757373955e-06 8.9535076696746659e-07 0 -6.5278107611890272e-06 1.6339288033357687e-07 0 -7.5637135167790471e-06 -4.2381705518355845e-08 0 -6.5278107611890272e-06 1.6339288033357687e-07 0 -7.5637135167790471e-06 -4.2381705518355845e-08 0 -9.0916573719053353e-06 -1.0993150037689694e-06 0 -6.0146431829814132e-06 4.8670331830790209e-07 0 -5.2845411757373955e-06 8.9535076696746659e-07 0 -7.5637135167790471e-06 -4.2381705518355845e-08 0 -6.0146431829814132e-06 4.8670331830790209e-07 0 -7.5637135167790471e-06 -4.2381705518355845e-08 0 -7.5518893591334336e-06 -2.8642877241495106e-07 0 -7.5637135167790471e-06 -4.2381705518355845e-08 0 -7.5518893591334336e-06 -2.8642877241495106e-07 0 -1.028533816818191e-05 -1.3672529729600935e-06 0 -1.028533816818191e-05 -1.3672529729600935e-06 0 -9.0916573719053353e-06 -1.0993150037689694e-06 0 -1.3185329221891985e-05 -3.1316960951991454e-06 0 -7.5637135167790471e-06 -4.2381705518355845e-08 0 -1.028533816818191e-05 -1.3672529729600935e-06 0 -9.0916573719053353e-06 -1.0993150037689694e-06 0 -9.0916573719053353e-06 -1.0993150037689694e-06 0 -1.3185329221891985e-05 -3.1316960951991454e-06 0 -1.2224635619173809e-05 -3.3663722854628639e-06 0 -1.3185329221891985e-05 -3.1316960951991454e-06 0 -1.2224635619173809e-05 -3.3663722854628639e-06 0 -1.654938701065116e-05 -5.730214692930875e-06 0 -1.2224635619173809e-05 -3.3663722854628639e-06 0 -1.4861005744335833e-05 -5.6826341280510377e-06 0 -1.0712810260790713e-05 -4.2728861576237083e-06 0 -1.4861005744335833e-05 -5.6826341280510377e-06 0 -1.0712810260790713e-05 -4.2728861576237083e-06 0 -1.4949800050841093e-05 -7.8129450042686555e-06 0 -1.2224635619173809e-05 -3.3663722854628639e-06 0 -1.4861005744335833e-05 -5.6826341280510377e-06 0 -1.654938701065116e-05 -5.730214692930875e-06 0 -1.4861005744335833e-05 -5.6826341280510377e-06 0 -1.654938701065116e-05 -5.730214692930875e-06 0 -2.0270307719805326e-05 -9.3000966310154222e-06 0 -1.0712810260790713e-05 -4.2728861576237083e-06 0 -6.6695874768859613e-06 -4.2004592633660648e-06 0 -1.000474245629289e-05 -7.0896217719802333e-06 0 -1.0712810260790713e-05 -4.2728861576237083e-06 0 -7.0523907495299206e-06 -2.1951445689701761e-06 0 -6.6695874768859613e-06 -4.2004592633660648e-06 0 -1.2224635619173809e-05 -3.3663722854628639e-06 0 -1.0712810260790713e-05 -4.2728861576237083e-06 0 -9.0389565279541222e-06 -2.0754574145575871e-06 0 -1.0712810260790713e-05 -4.2728861576237083e-06 0 -7.0523907495299206e-06 -2.1951445689701761e-06 0 -9.0389565279541222e-06 -2.0754574145575871e-06 0 -7.0523907495299206e-06 -2.1951445689701761e-06 0 -9.0389565279541222e-06 -2.0754574145575871e-06 0 -6.0861622077041521e-06 -4.0562850259369596e-07 0 -9.0916573719053353e-06 -1.0993150037689694e-06 0 -1.2224635619173809e-05 -3.3663722854628639e-06 0 -9.0389565279541222e-06 -2.0754574145575871e-06 0 -9.0916573719053353e-06 -1.0993150037689694e-06 0 -9.0389565279541222e-06 -2.0754574145575871e-06 0 -6.0861622077041521e-06 -4.0562850259369596e-07 0 -6.5278107611890272e-06 1.6339288033357687e-07 0 -9.0916573719053353e-06 -1.0993150037689694e-06 0 -6.0861622077041521e-06 -4.0562850259369596e-07 0 -4.4734813326241736e-06 7.9955750332947765e-07 0 -6.0861622077041521e-06 -4.0562850259369596e-07 0 -3.6320940986019201e-06 4.0449082219136381e-07 0 -6.0861622077041521e-06 -4.0562850259369596e-07 0 -3.6320940986019201e-06 4.0449082219136381e-07 0 -4.18221578944857e-06 -7.2956883898849053e-07 0 -3.6320940986019201e-06 4.0449082219136381e-07 0 -4.18221578944857e-06 -7.2956883898849053e-07 0 -2.0476962369795735e-06 3.5817501743966857e-07 0 -4.18221578944857e-06 -7.2956883898849053e-07 0 -2.0639766925169393e-06 -1.2493772469381562e-06 0 -4.4722926839789653e-06 -2.2802844234260732e-06 0 -4.18221578944857e-06 -7.2956883898849053e-07 0 -2.0476962369795735e-06 3.5817501743966857e-07 0 -2.0639766925169393e-06 -1.2493772469381562e-06 0 -7.0523907495299206e-06 -2.1951445689701761e-06 0 -6.0861622077041521e-06 -4.0562850259369596e-07 0 -4.18221578944857e-06 -7.2956883898849053e-07 0 -6.7447402427127497e-07 1.3001824957734857e-06 0 -3.2804769463984586e-07 5.8404173993305011e-09 0 7.6900927946853358e-07 7.5193548547109e-07 0 -6.7447402427127497e-07 1.3001824957734857e-06 0 -3.2804769463984586e-07 5.8404173993305011e-09 0 -2.0476962369795735e-06 3.5817501743966857e-07 0 -3.2804769463984586e-07 5.8404173993305011e-09 0 -2.0476962369795735e-06 3.5817501743966857e-07 0 -2.0639766925169393e-06 -1.2493772469381562e-06 0 -3.2804769463984586e-07 5.8404173993305011e-09 0 3.1749041084589715e-07 -2.1562203867607578e-06 0 1.6047998347062591e-06 -2.8751874059943511e-07 0 -3.2804769463984586e-07 5.8404173993305011e-09 0 3.1749041084589715e-07 -2.1562203867607578e-06 0 -2.0639766925169393e-06 -1.2493772469381562e-06 0 3.1749041084589715e-07 -2.1562203867607578e-06 0 -2.0639766925169393e-06 -1.2493772469381562e-06 0 -2.9646629688531253e-06 -3.4576240690836281e-06 0 3.1749041084589715e-07 -2.1562203867607578e-06 0 -2.9646629688531253e-06 -3.4576240690836281e-06 0 -6.5661785817299237e-07 -5.1151717942248107e-06 0 3.1749041084589715e-07 -2.1562203867607578e-06 0 -6.5661785817299237e-07 -5.1151717942248107e-06 0 2.5474540697194489e-06 -4.1794648477910937e-06 0 -7.0523907495299206e-06 -2.1951445689701761e-06 0 -4.18221578944857e-06 -7.2956883898849053e-07 0 -4.4722926839789653e-06 -2.2802844234260732e-06 0 -7.0523907495299206e-06 -2.1951445689701761e-06 0 -4.4722926839789653e-06 -2.2802844234260732e-06 0 -6.6695874768859613e-06 -4.2004592633660648e-06 0 -2.0639766925169393e-06 -1.2493772469381562e-06 0 -4.4722926839789653e-06 -2.2802844234260732e-06 0 -2.9646629688531253e-06 -3.4576240690836281e-06 0 -2.9646629688531253e-06 -3.4576240690836281e-06 0 -6.6695874768859613e-06 -4.2004592633660648e-06 0 -5.0084903651352187e-06 -6.3475681204486856e-06 0 -4.4722926839789653e-06 -2.2802844234260732e-06 0 -2.9646629688531253e-06 -3.4576240690836281e-06 0 -6.6695874768859613e-06 -4.2004592633660648e-06 0 -6.6695874768859613e-06 -4.2004592633660648e-06 0 -5.0084903651352187e-06 -6.3475681204486856e-06 0 -1.000474245629289e-05 -7.0896217719802333e-06 0 -5.0084903651352187e-06 -6.3475681204486856e-06 0 -2.1960155159981579e-06 -8.4723472543880062e-06 0 -8.2201112163170592e-06 -1.0718655699084098e-05 0 -5.0084903651352187e-06 -6.3475681204486856e-06 0 -8.2201112163170592e-06 -1.0718655699084098e-05 0 -1.000474245629289e-05 -7.0896217719802333e-06 0 -6.5661785817299237e-07 -5.1151717942248107e-06 0 2.0577396718753808e-06 -7.2931034459899191e-06 0 2.5474540697194489e-06 -4.1794648477910937e-06 0 -2.9646629688531253e-06 -3.4576240690836281e-06 0 -5.0084903651352187e-06 -6.3475681204486856e-06 0 -6.5661785817299237e-07 -5.1151717942248107e-06 0 -5.0084903651352187e-06 -6.3475681204486856e-06 0 -6.5661785817299237e-07 -5.1151717942248107e-06 0 -2.1960155159981579e-06 -8.4723472543880062e-06 0 -6.5661785817299237e-07 -5.1151717942248107e-06 0 -2.1960155159981579e-06 -8.4723472543880062e-06 0 2.0577396718753808e-06 -7.2931034459899191e-06 0 -2.1960155159981579e-06 -8.4723472543880062e-06 0 6.3456243262375402e-07 -1.1344238092244542e-05 0 2.0577396718753808e-06 -7.2931034459899191e-06 0 -2.1960155159981579e-06 -8.4723472543880062e-06 0 6.3456243262375402e-07 -1.1344238092244542e-05 0 -3.7013104322957765e-06 -1.3360882531471631e-05 0 -3.7013104322957765e-06 -1.3360882531471631e-05 0 -6.2370586946753252e-06 -1.9807112296486626e-05 0 -1.5575179678130855e-06 -1.7503329752235339e-05 0 6.3456243262375402e-07 -1.1344238092244542e-05 0 -3.7013104322957765e-06 -1.3360882531471631e-05 0 -1.5575179678130855e-06 -1.7503329752235339e-05 0 6.3456243262375402e-07 -1.1344238092244542e-05 0 3.1847446827021063e-06 -1.4649587082597516e-05 0 -1.5575179678130855e-06 -1.7503329752235339e-05 0 -8.2201112163170592e-06 -1.0718655699084098e-05 0 -3.7013104322957765e-06 -1.3360882531471631e-05 0 -8.9992183883312309e-06 -1.5672139420781837e-05 0 -2.1960155159981579e-06 -8.4723472543880062e-06 0 -8.2201112163170592e-06 -1.0718655699084098e-05 0 -3.7013104322957765e-06 -1.3360882531471631e-05 0 -3.7013104322957765e-06 -1.3360882531471631e-05 0 -8.9992183883312309e-06 -1.5672139420781837e-05 0 -6.2370586946753252e-06 -1.9807112296486626e-05 0 -8.2201112163170592e-06 -1.0718655699084098e-05 0 -8.9992183883312309e-06 -1.5672139420781837e-05 0 -1.4612465124724319e-05 -1.5693923068828175e-05 0 -8.9992183883312309e-06 -1.5672139420781837e-05 0 -1.4612465124724319e-05 -1.5693923068828175e-05 0 -1.2263461537322477e-05 -1.9647424218383549e-05 0 -8.2201112163170592e-06 -1.0718655699084098e-05 0 -1.4612465124724319e-05 -1.5693923068828175e-05 0 -1.4502132156985865e-05 -1.1134294151327482e-05 0 -1.4612465124724319e-05 -1.5693923068828175e-05 0 -2.0272335573946325e-05 -1.5576234847545288e-05 0 -1.4502132156985865e-05 -1.1134294151327482e-05 0 -1.4612465124724319e-05 -1.5693923068828175e-05 0 -2.0272335573946325e-05 -1.5576234847545288e-05 0 -2.104543716598576e-05 -2.2675675187749415e-05 0 -2.0272335573946325e-05 -1.5576234847545288e-05 0 -2.811078740985165e-05 -2.0554848155162663e-05 0 -2.104543716598576e-05 -2.2675675187749415e-05 0 -2.0272335573946325e-05 -1.5576234847545288e-05 0 -2.811078740985165e-05 -2.0554848155162663e-05 0 -2.4184955735942597e-05 -1.42497608925293e-05 0 -2.0272335573946325e-05 -1.5576234847545288e-05 0 -2.4184955735942597e-05 -1.42497608925293e-05 0 -1.8828807416446938e-05 -1.1469732351743327e-05 0 -2.0272335573946325e-05 -1.5576234847545288e-05 0 -1.8828807416446938e-05 -1.1469732351743327e-05 0 -1.4502132156985865e-05 -1.1134294151327482e-05 0 -1.8828807416446938e-05 -1.1469732351743327e-05 0 -2.0270307719805326e-05 -9.3000966310154222e-06 0 -1.4949800050841093e-05 -7.8129450042686555e-06 0 -1.8828807416446938e-05 -1.1469732351743327e-05 0 -1.4949800050841093e-05 -7.8129450042686555e-06 0 -1.4502132156985865e-05 -1.1134294151327482e-05 0 -2.4184955735942597e-05 -1.42497608925293e-05 0 -1.8828807416446938e-05 -1.1469732351743327e-05 0 -2.0270307719805326e-05 -9.3000966310154222e-06 0 -1.4861005744335833e-05 -5.6826341280510377e-06 0 -2.0270307719805326e-05 -9.3000966310154222e-06 0 -1.4949800050841093e-05 -7.8129450042686555e-06 0 -1.0712810260790713e-05 -4.2728861576237083e-06 0 -1.4949800050841093e-05 -7.8129450042686555e-06 0 -1.000474245629289e-05 -7.0896217719802333e-06 0 -8.2201112163170592e-06 -1.0718655699084098e-05 0 -1.000474245629289e-05 -7.0896217719802333e-06 0 -1.4502132156985865e-05 -1.1134294151327482e-05 0 -1.4949800050841093e-05 -7.8129450042686555e-06 0 -1.000474245629289e-05 -7.0896217719802333e-06 0 -1.4502132156985865e-05 -1.1134294151327482e-05 0 6.9250290663951002e-06 -4.499681369910723e-06 0 7.2738642692222053e-06 -2.3379520209945148e-06 0 7.8797333384257481e-06 -3.6030944756753074e-06 0 6.9250290663951002e-06 -4.499681369910723e-06 0 6.3459537063135685e-06 -2.9564294065689088e-06 0 7.2738642692222053e-06 -2.3379520209945148e-06 0 6.9250290663951002e-06 -4.499681369910723e-06 0 6.3459537063135685e-06 -2.9564294065689088e-06 0 5.6993734345821429e-06 -4.5787643433487642e-06 0 7.2738642692222053e-06 -2.3379520209945148e-06 0 8.3749620916092692e-06 -1.2220178484262054e-06 0 7.8797333384257481e-06 -3.6030944756753074e-06 0 8.3749620916092692e-06 -1.2220178484262054e-06 0 9.3134017187640586e-06 -1.7184271055569997e-06 0 9.4784036190085985e-06 4.189726577837282e-07 0 8.3749620916092692e-06 -1.2220178484262054e-06 0 9.3134017187640586e-06 -1.7184271055569997e-06 0 7.8797333384257481e-06 -3.6030944756753074e-06 0 9.3134017187640586e-06 -1.7184271055569997e-06 0 7.8797333384257481e-06 -3.6030944756753074e-06 0 8.6405881517662275e-06 -3.9440547476100953e-06 0 7.8797333384257481e-06 -3.6030944756753074e-06 0 8.6405881517662275e-06 -3.9440547476100953e-06 0 8.0750411757131261e-06 -6.0039493920083058e-06 0 9.3134017187640586e-06 -1.7184271055569997e-06 0 8.6405881517662275e-06 -3.9440547476100953e-06 0 9.4846707974187213e-06 -4.6115376186192282e-06 0 8.6405881517662275e-06 -3.9440547476100953e-06 0 9.4846707974187213e-06 -4.6115376186192282e-06 0 8.0750411757131261e-06 -6.0039493920083058e-06 0 8.0750411757131261e-06 -6.0039493920083058e-06 0 7.0802606001672111e-06 -6.4478795491543878e-06 0 7.1070286566143637e-06 -8.695322517657848e-06 0 7.8797333384257481e-06 -3.6030944756753074e-06 0 8.0750411757131261e-06 -6.0039493920083058e-06 0 7.0802606001672111e-06 -6.4478795491543878e-06 0 6.9250290663951002e-06 -4.499681369910723e-06 0 7.8797333384257481e-06 -3.6030944756753074e-06 0 7.0802606001672111e-06 -6.4478795491543878e-06 0 6.9250290663951002e-06 -4.499681369910723e-06 0 7.0802606001672111e-06 -6.4478795491543878e-06 0 6.3684414738382135e-06 -6.5859491274251512e-06 0 7.0802606001672111e-06 -6.4478795491543878e-06 0 6.2616549128084307e-06 -9.0791916763927693e-06 0 7.1070286566143637e-06 -8.695322517657848e-06 0 6.2616549128084307e-06 -9.0791916763927693e-06 0 6.362071523926542e-06 -9.0614228340866157e-06 0 7.4445662158716246e-06 -1.2556693167966132e-05 0 6.2616549128084307e-06 -9.0791916763927693e-06 0 6.362071523926542e-06 -9.0614228340866157e-06 0 6.3684414738382135e-06 -6.5859491274251512e-06 0 6.362071523926542e-06 -9.0614228340866157e-06 0 6.3684414738382135e-06 -6.5859491274251512e-06 0 5.0749825377261785e-06 -6.303806348701352e-06 0 7.0802606001672111e-06 -6.4478795491543878e-06 0 6.2616549128084307e-06 -9.0791916763927693e-06 0 6.3684414738382135e-06 -6.5859491274251512e-06 0 3.1847446827021063e-06 -1.4649587082597516e-05 0 4.7440420300173083e-06 -9.8003506513836966e-06 0 7.4445662158716246e-06 -1.2556693167966132e-05 0 6.3456243262375402e-07 -1.1344238092244542e-05 0 3.1847446827021063e-06 -1.4649587082597516e-05 0 4.7440420300173083e-06 -9.8003506513836966e-06 0 6.362071523926542e-06 -9.0614228340866157e-06 0 4.7440420300173083e-06 -9.8003506513836966e-06 0 7.4445662158716246e-06 -1.2556693167966132e-05 0 6.362071523926542e-06 -9.0614228340866157e-06 0 4.7440420300173083e-06 -9.8003506513836966e-06 0 5.0749825377261785e-06 -6.303806348701352e-06 0 6.3456243262375402e-07 -1.1344238092244542e-05 0 4.7440420300173083e-06 -9.8003506513836966e-06 0 2.0577396718753808e-06 -7.2931034459899191e-06 0 4.7440420300173083e-06 -9.8003506513836966e-06 0 2.0577396718753808e-06 -7.2931034459899191e-06 0 5.0749825377261785e-06 -6.303806348701352e-06 0 2.0577396718753808e-06 -7.2931034459899191e-06 0 5.0749825377261785e-06 -6.303806348701352e-06 0 2.5474540697194489e-06 -4.1794648477910937e-06 0 5.0749825377261785e-06 -6.303806348701352e-06 0 2.5474540697194489e-06 -4.1794648477910937e-06 0 4.3815285994464113e-06 -3.1996466403748282e-06 0 6.9250290663951002e-06 -4.499681369910723e-06 0 6.3684414738382135e-06 -6.5859491274251512e-06 0 5.6993734345821429e-06 -4.5787643433487642e-06 0 6.3684414738382135e-06 -6.5859491274251512e-06 0 5.0749825377261785e-06 -6.303806348701352e-06 0 5.6993734345821429e-06 -4.5787643433487642e-06 0 5.0749825377261785e-06 -6.303806348701352e-06 0 5.6993734345821429e-06 -4.5787643433487642e-06 0 4.3815285994464113e-06 -3.1996466403748282e-06 0 5.6993734345821429e-06 -4.5787643433487642e-06 0 4.3815285994464113e-06 -3.1996466403748282e-06 0 5.2807507936347758e-06 -1.2727471400198826e-06 0 6.3459537063135685e-06 -2.9564294065689088e-06 0 5.6993734345821429e-06 -4.5787643433487642e-06 0 5.2807507936347758e-06 -1.2727471400198826e-06 0 4.3815285994464113e-06 -3.1996466403748282e-06 0 4.0958748916641252e-06 -1.4217656637122469e-06 0 5.2807507936347758e-06 -1.2727471400198826e-06 0 4.0958748916641252e-06 -1.4217656637122469e-06 0 5.2807507936347758e-06 -1.2727471400198826e-06 0 4.3262972402055907e-06 -2.9768519281154824e-07 0 3.1749041084589715e-07 -2.1562203867607578e-06 0 2.5474540697194489e-06 -4.1794648477910937e-06 0 2.7984229445764008e-06 -1.8548222783097019e-06 0 2.5474540697194489e-06 -4.1794648477910937e-06 0 4.3815285994464113e-06 -3.1996466403748282e-06 0 2.7984229445764008e-06 -1.8548222783097019e-06 0 4.3815285994464113e-06 -3.1996466403748282e-06 0 4.0958748916641252e-06 -1.4217656637122469e-06 0 2.7984229445764008e-06 -1.8548222783097019e-06 0 4.0958748916641252e-06 -1.4217656637122469e-06 0 2.7984229445764008e-06 -1.8548222783097019e-06 0 3.1944848727927066e-06 -3.0388006916896293e-07 0 3.1749041084589715e-07 -2.1562203867607578e-06 0 2.7984229445764008e-06 -1.8548222783097019e-06 0 1.6047998347062591e-06 -2.8751874059943511e-07 0 2.7984229445764008e-06 -1.8548222783097019e-06 0 1.6047998347062591e-06 -2.8751874059943511e-07 0 3.1944848727927066e-06 -3.0388006916896293e-07 0 1.6047998347062591e-06 -2.8751874059943511e-07 0 3.1944848727927066e-06 -3.0388006916896293e-07 0 2.1654629024384536e-06 9.3930231549044656e-07 0 1.6047998347062591e-06 -2.8751874059943511e-07 0 7.6900927946853358e-07 7.5193548547109e-07 0 2.1654629024384536e-06 9.3930231549044656e-07 0 -3.2804769463984586e-07 5.8404173993305011e-09 0 1.6047998347062591e-06 -2.8751874059943511e-07 0 7.6900927946853358e-07 7.5193548547109e-07 0 5.2807507936347758e-06 -1.2727471400198826e-06 0 4.3262972402055907e-06 -2.9768519281154824e-07 0 4.9685009886077145e-06 3.4340793248432443e-07 0 4.0958748916641252e-06 -1.4217656637122469e-06 0 4.3262972402055907e-06 -2.9768519281154824e-07 0 3.1944848727927066e-06 -3.0388006916896293e-07 0 4.3262972402055907e-06 -2.9768519281154824e-07 0 3.1944848727927066e-06 -3.0388006916896293e-07 0 3.6486625073866616e-06 6.0233270526335936e-07 0 3.1944848727927066e-06 -3.0388006916896293e-07 0 3.6486625073866616e-06 6.0233270526335936e-07 0 2.1654629024384536e-06 9.3930231549044656e-07 0 4.3262972402055907e-06 -2.9768519281154824e-07 0 3.6486625073866616e-06 6.0233270526335936e-07 0 4.9685009886077145e-06 3.4340793248432443e-07 0 3.6486625073866616e-06 6.0233270526335936e-07 0 4.9685009886077145e-06 3.4340793248432443e-07 0 3.6347216124977701e-06 1.2222505412794721e-06 0 4.9685009886077145e-06 3.4340793248432443e-07 0 6.2714557391681535e-06 3.8755966466932158e-07 0 4.8856227600042189e-06 9.6686274607360777e-07 0 6.2714557391681535e-06 3.8755966466932158e-07 0 6.207725108468858e-06 8.9046539833104921e-07 0 4.8856227600042189e-06 9.6686274607360777e-07 0 4.9685009886077145e-06 3.4340793248432443e-07 0 6.2714557391681535e-06 3.8755966466932158e-07 0 6.074428581626646e-06 -4.553527852457159e-07 0 5.2807507936347758e-06 -1.2727471400198826e-06 0 4.9685009886077145e-06 3.4340793248432443e-07 0 6.074428581626646e-06 -4.553527852457159e-07 0 5.2807507936347758e-06 -1.2727471400198826e-06 0 6.074428581626646e-06 -4.553527852457159e-07 0 6.50335402299196e-06 -1.4956555663271263e-06 0 6.074428581626646e-06 -4.553527852457159e-07 0 6.50335402299196e-06 -1.4956555663271263e-06 0 7.3141608692723885e-06 -5.1592734217108825e-07 0 6.2714557391681535e-06 3.8755966466932158e-07 0 6.074428581626646e-06 -4.553527852457159e-07 0 7.3141608692723885e-06 -5.1592734217108825e-07 0 7.2738642692222053e-06 -2.3379520209945148e-06 0 6.50335402299196e-06 -1.4956555663271263e-06 0 7.3141608692723885e-06 -5.1592734217108825e-07 0 6.3459537063135685e-06 -2.9564294065689088e-06 0 7.2738642692222053e-06 -2.3379520209945148e-06 0 6.50335402299196e-06 -1.4956555663271263e-06 0 6.3459537063135685e-06 -2.9564294065689088e-06 0 5.2807507936347758e-06 -1.2727471400198826e-06 0 6.50335402299196e-06 -1.4956555663271263e-06 0 8.3749620916092692e-06 -1.2220178484262054e-06 0 8.3647873742335178e-06 1.6228766791786006e-07 0 9.4784036190085985e-06 4.189726577837282e-07 0 8.3749620916092692e-06 -1.2220178484262054e-06 0 8.3647873742335178e-06 1.6228766791786006e-07 0 7.3141608692723885e-06 -5.1592734217108825e-07 0 7.2738642692222053e-06 -2.3379520209945148e-06 0 8.3749620916092692e-06 -1.2220178484262054e-06 0 7.3141608692723885e-06 -5.1592734217108825e-07 0 6.2714557391681535e-06 3.8755966466932158e-07 0 7.3141608692723885e-06 -5.1592734217108825e-07 0 7.5182620391389775e-06 5.432475595390688e-07 0 8.3647873742335178e-06 1.6228766791786006e-07 0 7.5182620391389775e-06 5.432475595390688e-07 0 9.0066787807227793e-06 1.216787818623027e-06 0 8.3647873742335178e-06 1.6228766791786006e-07 0 7.3141608692723885e-06 -5.1592734217108825e-07 0 7.5182620391389775e-06 5.432475595390688e-07 0 7.5182620391389775e-06 5.432475595390688e-07 0 6.207725108468858e-06 8.9046539833104921e-07 0 7.5691022234282118e-06 1.0224250384204709e-06 0 6.2714557391681535e-06 3.8755966466932158e-07 0 7.5182620391389775e-06 5.432475595390688e-07 0 6.207725108468858e-06 8.9046539833104921e-07 0 6.207725108468858e-06 8.9046539833104921e-07 0 6.2795517342215902e-06 1.0150328898483674e-06 0 7.5691022234282118e-06 1.0224250384204709e-06 0 6.2795517342215902e-06 1.0150328898483674e-06 0 4.9133721052981786e-06 1.0281717997433557e-06 0 5.1540580686925175e-06 1.0782596071016495e-06 0 4.9133721052981786e-06 1.0281717997433557e-06 0 5.1540580686925175e-06 1.0782596071016495e-06 0 4.100059143901086e-06 1.26730003526547e-06 0 6.207725108468858e-06 8.9046539833104921e-07 0 5.1540580686925175e-06 1.0782596071016495e-06 0 4.8856227600042189e-06 9.6686274607360777e-07 0 6.207725108468858e-06 8.9046539833104921e-07 0 6.2795517342215902e-06 1.0150328898483674e-06 0 5.1540580686925175e-06 1.0782596071016495e-06 0 4.9685009886077145e-06 3.4340793248432443e-07 0 4.8856227600042189e-06 9.6686274607360777e-07 0 3.6347216124977701e-06 1.2222505412794721e-06 0 4.100059143901086e-06 1.26730003526547e-06 0 2.9312431480402254e-06 1.4950973635812774e-06 0 3.6347216124977701e-06 1.2222505412794721e-06 0 4.8856227600042189e-06 9.6686274607360777e-07 0 4.100059143901086e-06 1.26730003526547e-06 0 3.6347216124977701e-06 1.2222505412794721e-06 0 5.1540580686925175e-06 1.0782596071016495e-06 0 4.8856227600042189e-06 9.6686274607360777e-07 0 4.100059143901086e-06 1.26730003526547e-06 0 4.100059143901086e-06 1.26730003526547e-06 0 2.8539648674902464e-06 1.2853651604338971e-06 0 3.7292275302933461e-06 1.1040532672847051e-06 0 4.100059143901086e-06 1.26730003526547e-06 0 2.9312431480402254e-06 1.4950973635812774e-06 0 2.8539648674902464e-06 1.2853651604338971e-06 0 2.9312431480402254e-06 1.4950973635812774e-06 0 2.8539648674902464e-06 1.2853651604338971e-06 0 1.9317235540874169e-06 1.3949754612053261e-06 0 2.8539648674902464e-06 1.2853651604338971e-06 0 3.7292275302933461e-06 1.1040532672847051e-06 0 2.5967851359874124e-06 9.2969043072174214e-07 0 3.7292275302933461e-06 1.1040532672847051e-06 0 2.5967851359874124e-06 9.2969043072174214e-07 0 3.1069317667157277e-06 6.3828772262971661e-07 0 3.7292275302933461e-06 1.1040532672847051e-06 0 3.1069317667157277e-06 6.3828772262971661e-07 0 4.3790105610504023e-06 7.9720798838014482e-07 0 4.9133721052981786e-06 1.0281717997433557e-06 0 3.7292275302933461e-06 1.1040532672847051e-06 0 4.3790105610504023e-06 7.9720798838014482e-07 0 4.9133721052981786e-06 1.0281717997433557e-06 0 4.100059143901086e-06 1.26730003526547e-06 0 3.7292275302933461e-06 1.1040532672847051e-06 0 7.6900927946853358e-07 7.5193548547109e-07 0 8.8512193765446039e-07 1.4960284043858566e-06 0 2.1654629024384536e-06 9.3930231549044656e-07 0 8.8512193765446039e-07 1.4960284043858566e-06 0 2.1654629024384536e-06 9.3930231549044656e-07 0 2.0132501495351806e-06 1.5711969794441871e-06 0 8.8512193765446039e-07 1.4960284043858566e-06 0 2.0132501495351806e-06 1.5711969794441871e-06 0 9.447744700416796e-07 1.8264235689175439e-06 0 2.0132501495351806e-06 1.5711969794441871e-06 0 2.8943929665867629e-06 1.1860415146941831e-06 0 2.6563013722906316e-06 1.5387327232940348e-06 0 2.1654629024384536e-06 9.3930231549044656e-07 0 2.0132501495351806e-06 1.5711969794441871e-06 0 2.8943929665867629e-06 1.1860415146941831e-06 0 3.6486625073866616e-06 6.0233270526335936e-07 0 2.1654629024384536e-06 9.3930231549044656e-07 0 2.8943929665867629e-06 1.1860415146941831e-06 0 3.6486625073866616e-06 6.0233270526335936e-07 0 2.8943929665867629e-06 1.1860415146941831e-06 0 3.6347216124977701e-06 1.2222505412794721e-06 0 2.8943929665867629e-06 1.1860415146941831e-06 0 3.6347216124977701e-06 1.2222505412794721e-06 0 2.6563013722906316e-06 1.5387327232940348e-06 0 2.9312431480402254e-06 1.4950973635812774e-06 0 3.6347216124977701e-06 1.2222505412794721e-06 0 2.6563013722906316e-06 1.5387327232940348e-06 0 2.9312431480402254e-06 1.4950973635812774e-06 0 2.6563013722906316e-06 1.5387327232940348e-06 0 1.7202886542953314e-06 1.7435202114702821e-06 0 2.9312431480402254e-06 1.4950973635812774e-06 0 1.7202886542953314e-06 1.7435202114702821e-06 0 1.9317235540874169e-06 1.3949754612053261e-06 0 2.0132501495351806e-06 1.5711969794441871e-06 0 2.6563013722906316e-06 1.5387327232940348e-06 0 1.7202886542953314e-06 1.7435202114702821e-06 0 2.0132501495351806e-06 1.5711969794441871e-06 0 1.7202886542953314e-06 1.7435202114702821e-06 0 9.447744700416796e-07 1.8264235689175439e-06 0 1.7202886542953314e-06 1.7435202114702821e-06 0 9.447744700416796e-07 1.8264235689175439e-06 0 4.8945677399229882e-07 1.8499086812757358e-06 0 -3.9424129084031789e-09 1.9040795785359429e-06 0 9.447744700416796e-07 1.8264235689175439e-06 0 4.8945677399229882e-07 1.8499086812757358e-06 0 -2.0366861422279934e-07 1.8130869626707965e-06 0 8.8512193765446039e-07 1.4960284043858566e-06 0 9.447744700416796e-07 1.8264235689175439e-06 0 -2.0366861422279934e-07 1.8130869626707965e-06 0 -3.9424129084031789e-09 1.9040795785359429e-06 0 9.447744700416796e-07 1.8264235689175439e-06 0 1.7713029319340822e-08 1.7253729669760162e-06 0 7.6066213311242387e-07 1.606729137635887e-06 0 1.9070023193198408e-07 1.1053477514852107e-06 0 1.7713029319340822e-08 1.7253729669760162e-06 0 -3.9424129084031789e-09 1.9040795785359429e-06 0 4.8945677399229882e-07 1.8499086812757358e-06 0 1.7713029319340822e-08 1.7253729669760162e-06 0 4.8945677399229882e-07 1.8499086812757358e-06 0 7.6066213311242387e-07 1.606729137635887e-06 0 1.7202886542953314e-06 1.7435202114702821e-06 0 4.8945677399229882e-07 1.8499086812757358e-06 0 7.6066213311242387e-07 1.606729137635887e-06 0 7.6066213311242387e-07 1.606729137635887e-06 0 4.6405864227560312e-07 9.4263822379224118e-07 0 1.9070023193198408e-07 1.1053477514852107e-06 0 7.6066213311242387e-07 1.606729137635887e-06 0 1.1441773710421915e-06 1.3883619407878168e-06 0 4.6405864227560312e-07 9.4263822379224118e-07 0 1.7202886542953314e-06 1.7435202114702821e-06 0 7.6066213311242387e-07 1.606729137635887e-06 0 1.1441773710421915e-06 1.3883619407878168e-06 0 1.7202886542953314e-06 1.7435202114702821e-06 0 1.1441773710421915e-06 1.3883619407878168e-06 0 1.9317235540874169e-06 1.3949754612053261e-06 0 1.1441773710421915e-06 1.3883619407878168e-06 0 1.9317235540874169e-06 1.3949754612053261e-06 0 7.7949856507951744e-07 8.6644463106189522e-07 0 1.1441773710421915e-06 1.3883619407878168e-06 0 4.6405864227560312e-07 9.4263822379224118e-07 0 7.7949856507951744e-07 8.6644463106189522e-07 0 5.3686885382177489e-10 4.3821742192646363e-10 0 4.6405864227560312e-07 9.4263822379224118e-07 0 7.7949856507951744e-07 8.6644463106189522e-07 0 5.3686885382177489e-10 4.3821742192646363e-10 0 4.6405864227560312e-07 9.4263822379224118e-07 0 3.2860658631933245e-10 4.387361127296005e-10 0 4.6405864227560312e-07 9.4263822379224118e-07 0 3.2860658631933245e-10 4.387361127296005e-10 0 1.9070023193198408e-07 1.1053477514852107e-06 0 3.2860658631933245e-10 4.387361127296005e-10 0 5.7086600128284243e-12 5.1274277902738274e-10 0 1.9070023193198408e-07 1.1053477514852107e-06 0 -1.1709030194479343e-07 1.0270686788176824e-06 0 5.7086600128284243e-12 5.1274277902738274e-10 0 1.9070023193198408e-07 1.1053477514852107e-06 0 1.6066206416565513e-06 5.1090314785838524e-07 0 2.5967851359874124e-06 9.2969043072174214e-07 0 1.5853476240839325e-06 9.1021603943766779e-07 0 1.6066206416565513e-06 5.1090314785838524e-07 0 2.5967851359874124e-06 9.2969043072174214e-07 0 3.1069317667157277e-06 6.3828772262971661e-07 0 2.8539648674902464e-06 1.2853651604338971e-06 0 2.5967851359874124e-06 9.2969043072174214e-07 0 1.5853476240839325e-06 9.1021603943766779e-07 0 2.8539648674902464e-06 1.2853651604338971e-06 0 1.9317235540874169e-06 1.3949754612053261e-06 0 1.5853476240839325e-06 9.1021603943766779e-07 0 1.9317235540874169e-06 1.3949754612053261e-06 0 1.5853476240839325e-06 9.1021603943766779e-07 0 7.7949856507951744e-07 8.6644463106189522e-07 0 1.5853476240839325e-06 9.1021603943766779e-07 0 6.5753952855019775e-07 5.2200775875029757e-07 0 7.7949856507951744e-07 8.6644463106189522e-07 0 5.3686885382177489e-10 4.3821742192646363e-10 0 7.7949856507951744e-07 8.6644463106189522e-07 0 8.2524774588890318e-10 2.7558992588923023e-10 0 6.5753952855019775e-07 5.2200775875029757e-07 0 7.7949856507951744e-07 8.6644463106189522e-07 0 8.2524774588890318e-10 2.7558992588923023e-10 0 6.5753952855019775e-07 5.2200775875029757e-07 0 8.2524774588890318e-10 2.7558992588923023e-10 0 9.5886901941509025e-10 2.3128464597318638e-10 0 6.5753952855019775e-07 5.2200775875029757e-07 0 9.5886901941509025e-10 2.3128464597318638e-10 0 6.9061295353442727e-07 3.7975457808968266e-07 0 1.6066206416565513e-06 5.1090314785838524e-07 0 6.9061295353442727e-07 3.7975457808968266e-07 0 1.0298467155967552e-09 1.8832965794177812e-10 0 1.6066206416565513e-06 5.1090314785838524e-07 0 1.5853476240839325e-06 9.1021603943766779e-07 0 6.9061295353442727e-07 3.7975457808968266e-07 0 1.5853476240839325e-06 9.1021603943766779e-07 0 6.5753952855019775e-07 5.2200775875029757e-07 0 6.9061295353442727e-07 3.7975457808968266e-07 0 9.5886901941509025e-10 2.3128464597318638e-10 0 6.9061295353442727e-07 3.7975457808968266e-07 0 1.0298467155967552e-09 1.8832965794177812e-10 0 1.6066206416565513e-06 5.1090314785838524e-07 0 1.0298467155967552e-09 1.8832965794177812e-10 0 1.0430097663663734e-06 1.2778064469313866e-07 0 1.0298467155967552e-09 1.8832965794177812e-10 0 1.0996711337864584e-09 -7.811663125813577e-11 0 1.0430097663663734e-06 1.2778064469313866e-07 0 1.0996711337864584e-09 -7.811663125813577e-11 0 1.0430097663663734e-06 1.2778064469313866e-07 0 7.9246007520922333e-07 -9.6028103215928227e-08 0 1.0430097663663734e-06 1.2778064469313866e-07 0 1.951445822443462e-06 -7.5206738266742026e-08 0 7.9246007520922333e-07 -9.6028103215928227e-08 0 1.6066206416565513e-06 5.1090314785838524e-07 0 1.0430097663663734e-06 1.2778064469313866e-07 0 2.1468617356855804e-06 2.473638484335176e-07 0 1.6066206416565513e-06 5.1090314785838524e-07 0 2.1468617356855804e-06 2.473638484335176e-07 0 3.1069317667157277e-06 6.3828772262971661e-07 0 1.0430097663663734e-06 1.2778064469313866e-07 0 2.1468617356855804e-06 2.473638484335176e-07 0 1.951445822443462e-06 -7.5206738266742026e-08 0 2.1468617356855804e-06 2.473638484335176e-07 0 3.0726852620179621e-06 3.1342868974691211e-08 0 1.951445822443462e-06 -7.5206738266742026e-08 0 2.1468617356855804e-06 2.473638484335176e-07 0 3.1069317667157277e-06 6.3828772262971661e-07 0 3.0726852620179621e-06 3.1342868974691211e-08 0 2.59870397534527e-06 -4.4773183687743051e-07 0 3.0726852620179621e-06 3.1342868974691211e-08 0 1.951445822443462e-06 -7.5206738266742026e-08 0 2.59870397534527e-06 -4.4773183687743051e-07 0 1.1282739227837523e-06 -4.0080977933538089e-07 0 1.9170377516597115e-06 -8.4058178697577099e-07 0 2.59870397534527e-06 -4.4773183687743051e-07 0 1.951445822443462e-06 -7.5206738266742026e-08 0 1.1282739227837523e-06 -4.0080977933538089e-07 0 1.951445822443462e-06 -7.5206738266742026e-08 0 1.1282739227837523e-06 -4.0080977933538089e-07 0 7.9246007520922333e-07 -9.6028103215928227e-08 0 1.0996711337864584e-09 -7.811663125813577e-11 0 7.9246007520922333e-07 -9.6028103215928227e-08 0 1.109517777082677e-09 -4.3365690028800908e-12 0 1.1282739227837523e-06 -4.0080977933538089e-07 0 1.109517777082677e-09 -4.3365690028800908e-12 0 8.7130987321607812e-10 -3.2998261884330022e-10 0 1.1282739227837523e-06 -4.0080977933538089e-07 0 7.9246007520922333e-07 -9.6028103215928227e-08 0 1.109517777082677e-09 -4.3365690028800908e-12 0 8.7130987321607812e-10 -3.2998261884330022e-10 0 8.7239618166954801e-07 -7.3421939563922384e-07 0 6.4908942578842472e-10 -4.1427023946406435e-10 0 1.1282739227837523e-06 -4.0080977933538089e-07 0 8.7239618166954801e-07 -7.3421939563922384e-07 0 1.9170377516597115e-06 -8.4058178697577099e-07 0 1.1282739227837523e-06 -4.0080977933538089e-07 0 8.7130987321607812e-10 -3.2998261884330022e-10 0 8.7239618166954801e-07 -7.3421939563922384e-07 0 6.4908942578842472e-10 -4.1427023946406435e-10 0 5.7055423063159443e-07 -1.133310283235934e-06 0 2.9233940251122083e-10 -6.0802417583200713e-10 0 8.7239618166954801e-07 -7.3421939563922384e-07 0 6.4908942578842472e-10 -4.1427023946406435e-10 0 5.7055423063159443e-07 -1.133310283235934e-06 0 5.7055423063159443e-07 -1.133310283235934e-06 0 2.9233940251122083e-10 -6.0802417583200713e-10 0 1.3836961776901092e-07 -1.2216549552517245e-06 0 5.7055423063159443e-07 -1.133310283235934e-06 0 1.8505890107233118e-06 -1.4104945674516549e-06 0 7.1349807900704715e-07 -1.8632515133769578e-06 0 1.8505890107233118e-06 -1.4104945674516549e-06 0 1.6462451605848711e-06 -1.7770359882422576e-06 0 7.1349807900704715e-07 -1.8632515133769578e-06 0 8.7239618166954801e-07 -7.3421939563922384e-07 0 5.7055423063159443e-07 -1.133310283235934e-06 0 1.8505890107233118e-06 -1.4104945674516549e-06 0 1.6462451605848711e-06 -1.7770359882422576e-06 0 7.1349807900704715e-07 -1.8632515133769578e-06 0 1.3325421685327079e-06 -1.9741992787130334e-06 0 8.7239618166954801e-07 -7.3421939563922384e-07 0 1.8505890107233118e-06 -1.4104945674516549e-06 0 1.9170377516597115e-06 -8.4058178697577099e-07 0 1.8505890107233118e-06 -1.4104945674516549e-06 0 1.9170377516597115e-06 -8.4058178697577099e-07 0 2.9850049718874459e-06 -7.9402187908623293e-07 0 2.59870397534527e-06 -4.4773183687743051e-07 0 1.9170377516597115e-06 -8.4058178697577099e-07 0 2.9850049718874459e-06 -7.9402187908623293e-07 0 1.8505890107233118e-06 -1.4104945674516549e-06 0 2.9850049718874459e-06 -7.9402187908623293e-07 0 3.9441745188698897e-06 -9.247030161953178e-07 0 2.9850049718874459e-06 -7.9402187908623293e-07 0 3.9441745188698897e-06 -9.247030161953178e-07 0 4.3141834536894892e-06 -2.2659896390312559e-07 0 3.9441745188698897e-06 -9.247030161953178e-07 0 5.5908698079771308e-06 -1.6332447029576138e-08 0 4.3141834536894892e-06 -2.2659896390312559e-07 0 1.8505890107233118e-06 -1.4104945674516549e-06 0 3.9441745188698897e-06 -9.247030161953178e-07 0 2.7309589384458901e-06 -1.5126711039168797e-06 0 1.6462451605848711e-06 -1.7770359882422576e-06 0 2.7309589384458901e-06 -1.5126711039168797e-06 0 1.3325421685327079e-06 -1.9741992787130334e-06 0 1.8505890107233118e-06 -1.4104945674516549e-06 0 1.6462451605848711e-06 -1.7770359882422576e-06 0 2.7309589384458901e-06 -1.5126711039168797e-06 0 3.9441745188698897e-06 -9.247030161953178e-07 0 2.7309589384458901e-06 -1.5126711039168797e-06 0 3.7050877518521321e-06 -1.1470343419877348e-06 0 2.7309589384458901e-06 -1.5126711039168797e-06 0 1.3325421685327079e-06 -1.9741992787130334e-06 0 1.8397475554437432e-06 -1.8203546883936797e-06 0 2.7309589384458901e-06 -1.5126711039168797e-06 0 3.7050877518521321e-06 -1.1470343419877348e-06 0 1.8397475554437432e-06 -1.8203546883936797e-06 0 3.7050877518521321e-06 -1.1470343419877348e-06 0 4.13695460638554e-06 -7.8446820852478196e-07 0 1.8397475554437432e-06 -1.8203546883936797e-06 0 3.7050877518521321e-06 -1.1470343419877348e-06 0 4.13695460638554e-06 -7.8446820852478196e-07 0 5.7016813046040708e-06 -2.306568493189253e-07 0 4.13695460638554e-06 -7.8446820852478196e-07 0 5.7016813046040708e-06 -2.306568493189253e-07 0 6.2217458944493746e-06 4.768659689882715e-07 0 4.13695460638554e-06 -7.8446820852478196e-07 0 1.5339189944131343e-06 -1.2372160923090465e-06 0 4.1139388324562187e-06 -5.9778619732351624e-08 0 4.13695460638554e-06 -7.8446820852478196e-07 0 4.1139388324562187e-06 -5.9778619732351624e-08 0 6.2217458944493746e-06 4.768659689882715e-07 0 3.9441745188698897e-06 -9.247030161953178e-07 0 5.7016813046040708e-06 -2.306568493189253e-07 0 5.5908698079771308e-06 -1.6332447029576138e-08 0 3.9441745188698897e-06 -9.247030161953178e-07 0 3.7050877518521321e-06 -1.1470343419877348e-06 0 5.7016813046040708e-06 -2.306568493189253e-07 0 5.7016813046040708e-06 -2.306568493189253e-07 0 7.1614520562962486e-06 6.5691279167746948e-07 0 5.5908698079771308e-06 -1.6332447029576138e-08 0 5.7016813046040708e-06 -2.306568493189253e-07 0 7.1614520562962486e-06 6.5691279167746948e-07 0 8.1417049258935862e-06 1.2437479066896534e-06 0 7.1614520562962486e-06 6.5691279167746948e-07 0 5.5908698079771308e-06 -1.6332447029576138e-08 0 6.6391543851221006e-06 6.6148777773837086e-07 0 7.1614520562962486e-06 6.5691279167746948e-07 0 6.6391543851221006e-06 6.6148777773837086e-07 0 8.0169999890047242e-06 1.1452683503711188e-06 0 5.5908698079771308e-06 -1.6332447029576138e-08 0 6.6391543851221006e-06 6.6148777773837086e-07 0 5.2372958514068182e-06 2.8986125074804758e-07 0 6.6391543851221006e-06 6.6148777773837086e-07 0 5.602052197341003e-06 7.7332353161042032e-07 0 5.2372958514068182e-06 2.8986125074804758e-07 0 6.6391543851221006e-06 6.6148777773837086e-07 0 7.2561099343157931e-06 1.0401395328654998e-06 0 8.0169999890047242e-06 1.1452683503711188e-06 0 6.6391543851221006e-06 6.6148777773837086e-07 0 5.602052197341003e-06 7.7332353161042032e-07 0 7.2561099343157931e-06 1.0401395328654998e-06 0 6.2795517342215902e-06 1.0150328898483674e-06 0 5.602052197341003e-06 7.7332353161042032e-07 0 7.2561099343157931e-06 1.0401395328654998e-06 0 4.9133721052981786e-06 1.0281717997433557e-06 0 5.602052197341003e-06 7.7332353161042032e-07 0 4.3790105610504023e-06 7.9720798838014482e-07 0 6.2795517342215902e-06 1.0150328898483674e-06 0 4.9133721052981786e-06 1.0281717997433557e-06 0 5.602052197341003e-06 7.7332353161042032e-07 0 5.602052197341003e-06 7.7332353161042032e-07 0 4.0921846372698406e-06 3.3991840387109214e-07 0 5.2372958514068182e-06 2.8986125074804758e-07 0 5.602052197341003e-06 7.7332353161042032e-07 0 4.3790105610504023e-06 7.9720798838014482e-07 0 4.0921846372698406e-06 3.3991840387109214e-07 0 3.1069317667157277e-06 6.3828772262971661e-07 0 4.3790105610504023e-06 7.9720798838014482e-07 0 4.0921846372698406e-06 3.3991840387109214e-07 0 3.1069317667157277e-06 6.3828772262971661e-07 0 3.0726852620179621e-06 3.1342868974691211e-08 0 4.0921846372698406e-06 3.3991840387109214e-07 0 3.0726852620179621e-06 3.1342868974691211e-08 0 4.0921846372698406e-06 3.3991840387109214e-07 0 4.3141834536894892e-06 -2.2659896390312559e-07 0 2.59870397534527e-06 -4.4773183687743051e-07 0 3.0726852620179621e-06 3.1342868974691211e-08 0 4.3141834536894892e-06 -2.2659896390312559e-07 0 2.59870397534527e-06 -4.4773183687743051e-07 0 2.9850049718874459e-06 -7.9402187908623293e-07 0 4.3141834536894892e-06 -2.2659896390312559e-07 0 5.5908698079771308e-06 -1.6332447029576138e-08 0 4.3141834536894892e-06 -2.2659896390312559e-07 0 5.2372958514068182e-06 2.8986125074804758e-07 0 4.0921846372698406e-06 3.3991840387109214e-07 0 4.3141834536894892e-06 -2.2659896390312559e-07 0 5.2372958514068182e-06 2.8986125074804758e-07 0 -4.0519973708788576e-06 -5.2522234639905588e-07 0 -3.8027019078241409e-06 -1.2852573950079483e-06 0 -6.9064635342509013e-06 -5.6829675955278071e-07 0 -3.8027019078241409e-06 -1.2852573950079483e-06 0 -1.7405696618833428e-06 -8.2778847760898912e-07 0 -2.2675931603086028e-06 -1.653537699068598e-06 0 -4.0519973708788576e-06 -5.2522234639905588e-07 0 -1.7824821332079518e-06 -8.3826774200329235e-08 0 -1.7405696618833428e-06 -8.2778847760898912e-07 0 -4.0519973708788576e-06 -5.2522234639905588e-07 0 -3.8027019078241409e-06 -1.2852573950079483e-06 0 -1.7405696618833428e-06 -8.2778847760898912e-07 0 -1.7824821332079518e-06 -8.3826774200329235e-08 0 -7.8810117821532452e-07 -2.3972706107380867e-07 0 -1.7405696618833428e-06 -8.2778847760898912e-07 0 -1.7824821332079518e-06 -8.3826774200329235e-08 0 -1.4653436972260738e-09 5.9912748663611852e-10 0 -7.8810117821532452e-07 -2.3972706107380867e-07 0 -1.4653436972260738e-09 5.9912748663611852e-10 0 -7.8810117821532452e-07 -2.3972706107380867e-07 0 -1.4178248731390646e-09 -5.4101293080776575e-10 0 -7.8810117821532452e-07 -2.3972706107380867e-07 0 -1.4178248731390646e-09 -5.4101293080776575e-10 0 -1.7405696618833428e-06 -8.2778847760898912e-07 0 -1.4178248731390646e-09 -5.4101293080776575e-10 0 -1.7405696618833428e-06 -8.2778847760898912e-07 0 -1.018665021006877e-06 -1.1149750252871031e-06 0 -1.7405696618833428e-06 -8.2778847760898912e-07 0 -1.018665021006877e-06 -1.1149750252871031e-06 0 -2.2675931603086028e-06 -1.653537699068598e-06 0 -1.4178248731390646e-09 -5.4101293080776575e-10 0 -1.2364397673569649e-09 -2.7651031461026348e-10 0 -1.018665021006877e-06 -1.1149750252871031e-06 0 -1.2364397673569649e-09 -2.7651031461026348e-10 0 -1.018665021006877e-06 -1.1149750252871031e-06 0 -5.2730345037797149e-10 -8.7177659089503121e-10 0 -1.018665021006877e-06 -1.1149750252871031e-06 0 -2.2675931603086028e-06 -1.653537699068598e-06 0 -9.8116182953352249e-07 -1.7123918482894364e-06 0 -2.2675931603086028e-06 -1.653537699068598e-06 0 -2.0335946158384118e-06 -2.1672545601511686e-06 0 -9.8116182953352249e-07 -1.7123918482894364e-06 0 -3.8027019078241409e-06 -1.2852573950079483e-06 0 -2.2675931603086028e-06 -1.653537699068598e-06 0 -3.4839762383842353e-06 -2.0358946598515672e-06 0 -3.8027019078241409e-06 -1.2852573950079483e-06 0 -3.4839762383842353e-06 -2.0358946598515672e-06 0 -5.3569076646433607e-06 -1.6110292021154768e-06 0 -3.4839762383842353e-06 -2.0358946598515672e-06 0 -2.0335946158384118e-06 -2.1672545601511686e-06 0 -2.215143197416731e-06 -2.3838813396577443e-06 0 -2.2675931603086028e-06 -1.653537699068598e-06 0 -3.4839762383842353e-06 -2.0358946598515672e-06 0 -2.0335946158384118e-06 -2.1672545601511686e-06 0 -2.0335946158384118e-06 -2.1672545601511686e-06 0 -1.1171479434278074e-06 -2.2845576007279372e-06 0 -2.215143197416731e-06 -2.3838813396577443e-06 0 -1.1171479434278074e-06 -2.2845576007279372e-06 0 -9.8116182953352249e-07 -1.7123918482894364e-06 0 -1.8937243183202089e-07 -1.9679136376704423e-06 0 -2.0335946158384118e-06 -2.1672545601511686e-06 0 -1.1171479434278074e-06 -2.2845576007279372e-06 0 -9.8116182953352249e-07 -1.7123918482894364e-06 0 -9.8116182953352249e-07 -1.7123918482894364e-06 0 -5.2730345037797149e-10 -8.7177659089503121e-10 0 -2.2557970628774218e-07 -1.133762329959871e-06 0 -1.018665021006877e-06 -1.1149750252871031e-06 0 -9.8116182953352249e-07 -1.7123918482894364e-06 0 -5.2730345037797149e-10 -8.7177659089503121e-10 0 -5.2730345037797149e-10 -8.7177659089503121e-10 0 -2.2557970628774218e-07 -1.133762329959871e-06 0 -1.6086598179450401e-10 -5.4412752754701111e-10 0 -9.8116182953352249e-07 -1.7123918482894364e-06 0 -2.2557970628774218e-07 -1.133762329959871e-06 0 -1.8937243183202089e-07 -1.9679136376704423e-06 0 -2.2557970628774218e-07 -1.133762329959871e-06 0 1.3836961776901092e-07 -1.2216549552517245e-06 0 -1.8937243183202089e-07 -1.9679136376704423e-06 0 -2.2557970628774218e-07 -1.133762329959871e-06 0 -1.6086598179450401e-10 -5.4412752754701111e-10 0 1.3836961776901092e-07 -1.2216549552517245e-06 0 -1.6086598179450401e-10 -5.4412752754701111e-10 0 2.9233940251122083e-10 -6.0802417583200713e-10 0 1.3836961776901092e-07 -1.2216549552517245e-06 0 5.7055423063159443e-07 -1.133310283235934e-06 0 1.3836961776901092e-07 -1.2216549552517245e-06 0 7.1349807900704715e-07 -1.8632515133769578e-06 0 1.3836961776901092e-07 -1.2216549552517245e-06 0 7.1349807900704715e-07 -1.8632515133769578e-06 0 -1.8937243183202089e-07 -1.9679136376704423e-06 0 -1.1171479434278074e-06 -2.2845576007279372e-06 0 -1.8937243183202089e-07 -1.9679136376704423e-06 0 -3.0133739065532783e-09 -2.3427920137137265e-06 0 7.1349807900704715e-07 -1.8632515133769578e-06 0 -1.8937243183202089e-07 -1.9679136376704423e-06 0 -3.0133739065532783e-09 -2.3427920137137265e-06 0 7.1349807900704715e-07 -1.8632515133769578e-06 0 1.3325421685327079e-06 -1.9741992787130334e-06 0 -3.0133739065532783e-09 -2.3427920137137265e-06 0 1.3325421685327079e-06 -1.9741992787130334e-06 0 -3.0133739065532783e-09 -2.3427920137137265e-06 0 1.8397475554437432e-06 -1.8203546883936797e-06 0 -3.0133739065532783e-09 -2.3427920137137265e-06 0 1.8397475554437432e-06 -1.8203546883936797e-06 0 -8.6099292124289532e-07 -2.2171213712420926e-06 0 4.13695460638554e-06 -7.8446820852478196e-07 0 1.8397475554437432e-06 -1.8203546883936797e-06 0 1.5339189944131343e-06 -1.2372160923090465e-06 0 1.5339189944131343e-06 -1.2372160923090465e-06 0 -1.0127343209028137e-06 -1.4643788269034678e-06 0 -5.5549638221309339e-07 -2.1525862895325306e-07 0 1.5339189944131343e-06 -1.2372160923090465e-06 0 -1.0127343209028137e-06 -1.4643788269034678e-06 0 -8.6099292124289532e-07 -2.2171213712420926e-06 0 1.8397475554437432e-06 -1.8203546883936797e-06 0 1.5339189944131343e-06 -1.2372160923090465e-06 0 -8.6099292124289532e-07 -2.2171213712420926e-06 0 -1.0127343209028137e-06 -1.4643788269034678e-06 0 -3.7295964664131292e-06 -1.9015520291487511e-06 0 -8.6099292124289532e-07 -2.2171213712420926e-06 0 -1.0127343209028137e-06 -1.4643788269034678e-06 0 -3.7717531475543865e-06 -8.265333673527804e-07 0 -5.5549638221309339e-07 -2.1525862895325306e-07 0 -1.0127343209028137e-06 -1.4643788269034678e-06 0 -3.7717531475543865e-06 -8.265333673527804e-07 0 -3.7295964664131292e-06 -1.9015520291487511e-06 0 -3.7295964664131292e-06 -1.9015520291487511e-06 0 -8.6099292124289532e-07 -2.2171213712420926e-06 0 -2.215143197416731e-06 -2.3838813396577443e-06 0 -3.7295964664131292e-06 -1.9015520291487511e-06 0 -2.215143197416731e-06 -2.3838813396577443e-06 0 -4.3293640443973271e-06 -2.0228883683568574e-06 0 -3.0133739065532783e-09 -2.3427920137137265e-06 0 -8.6099292124289532e-07 -2.2171213712420926e-06 0 -2.215143197416731e-06 -2.3838813396577443e-06 0 -1.1171479434278074e-06 -2.2845576007279372e-06 0 -3.0133739065532783e-09 -2.3427920137137265e-06 0 -2.215143197416731e-06 -2.3838813396577443e-06 0 -3.4839762383842353e-06 -2.0358946598515672e-06 0 -2.215143197416731e-06 -2.3838813396577443e-06 0 -4.3293640443973271e-06 -2.0228883683568574e-06 0 -3.4839762383842353e-06 -2.0358946598515672e-06 0 -4.3293640443973271e-06 -2.0228883683568574e-06 0 -5.3569076646433607e-06 -1.6110292021154768e-06 0 -4.3293640443973271e-06 -2.0228883683568574e-06 0 -6.6800906147597731e-06 -1.3436156255175369e-06 0 -5.3569076646433607e-06 -1.6110292021154768e-06 0 -3.7295964664131292e-06 -1.9015520291487511e-06 0 -4.3293640443973271e-06 -2.0228883683568574e-06 0 -6.6800906147597731e-06 -1.3436156255175369e-06 0 -3.7295964664131292e-06 -1.9015520291487511e-06 0 -7.8071391999880078e-06 -3.0112092340478466e-07 0 -6.6800906147597731e-06 -1.3436156255175369e-06 0 -3.7717531475543865e-06 -8.265333673527804e-07 0 -3.7295964664131292e-06 -1.9015520291487511e-06 0 -7.8071391999880078e-06 -3.0112092340478466e-07 0 -7.8071391999880078e-06 -3.0112092340478466e-07 0 -6.6800906147597731e-06 -1.3436156255175369e-06 0 -1.0362042449388597e-05 1.538779368095768e-09 0 -6.6800906147597731e-06 -1.3436156255175369e-06 0 -1.0362042449388597e-05 1.538779368095768e-09 0 -8.0571878279025226e-06 -8.7389541015764605e-07 0 -7.8071391999880078e-06 -3.0112092340478466e-07 0 -1.0362042449388597e-05 1.538779368095768e-09 0 -1.297650514264473e-05 1.9495659817733687e-06 0 -1.0362042449388597e-05 1.538779368095768e-09 0 -1.035798561641362e-05 2.2453136417231139e-07 0 -1.4419604014928909e-05 1.9366428782461293e-06 0 -1.0362042449388597e-05 1.538779368095768e-09 0 -1.035798561641362e-05 2.2453136417231139e-07 0 -8.0571878279025226e-06 -8.7389541015764605e-07 0 -1.035798561641362e-05 2.2453136417231139e-07 0 -8.0571878279025226e-06 -8.7389541015764605e-07 0 -6.9064635342509013e-06 -5.6829675955278071e-07 0 -6.6800906147597731e-06 -1.3436156255175369e-06 0 -8.0571878279025226e-06 -8.7389541015764605e-07 0 -5.3569076646433607e-06 -1.6110292021154768e-06 0 -8.0571878279025226e-06 -8.7389541015764605e-07 0 -5.3569076646433607e-06 -1.6110292021154768e-06 0 -6.9064635342509013e-06 -5.6829675955278071e-07 0 -3.8027019078241409e-06 -1.2852573950079483e-06 0 -5.3569076646433607e-06 -1.6110292021154768e-06 0 -6.9064635342509013e-06 -5.6829675955278071e-07 0 -2.430159383938762e-05 9.7127345837184787e-06 0 -2.1049309710573005e-05 9.8017217783239356e-06 0 -1.6898977397030135e-05 5.6693503728194919e-06 0 -2.430159383938762e-05 9.7127345837184787e-06 0 -2.1049309710573005e-05 9.8017217783239356e-06 0 -3.0252356354679165e-05 1.6343251195500902e-05 0 -2.1049309710573005e-05 9.8017217783239356e-06 0 -1.6898977397030135e-05 5.6693503728194919e-06 0 -1.4407801311820715e-05 7.9052672898617541e-06 0 -2.1049309710573005e-05 9.8017217783239356e-06 0 -1.4407801311820715e-05 7.9052672898617541e-06 0 -2.0709285735658863e-05 1.3880159894467317e-05 0 -2.430159383938762e-05 9.7127345837184787e-06 0 -1.6898977397030135e-05 5.6693503728194919e-06 0 -1.9011789051715403e-05 4.9694436593757695e-06 0 -1.9011789051715403e-05 4.9694436593757695e-06 0 -1.4419604014928909e-05 1.9366428782461293e-06 0 -1.297650514264473e-05 1.9495659817733687e-06 0 -1.0362042449388597e-05 1.538779368095768e-09 0 -1.4419604014928909e-05 1.9366428782461293e-06 0 -1.297650514264473e-05 1.9495659817733687e-06 0 -1.6898977397030135e-05 5.6693503728194919e-06 0 -1.9011789051715403e-05 4.9694436593757695e-06 0 -1.297650514264473e-05 1.9495659817733687e-06 0 -1.6898977397030135e-05 5.6693503728194919e-06 0 -1.297650514264473e-05 1.9495659817733687e-06 0 -9.6521862661979766e-06 2.9575784962378716e-06 0 -7.8071391999880078e-06 -3.0112092340478466e-07 0 -6.2306067701225927e-06 6.4154223028836432e-07 0 -9.6521862661979766e-06 2.9575784962378716e-06 0 -7.8071391999880078e-06 -3.0112092340478466e-07 0 -1.297650514264473e-05 1.9495659817733687e-06 0 -9.6521862661979766e-06 2.9575784962378716e-06 0 -3.7717531475543865e-06 -8.265333673527804e-07 0 -7.8071391999880078e-06 -3.0112092340478466e-07 0 -6.2306067701225927e-06 6.4154223028836432e-07 0 -9.6521862661979766e-06 2.9575784962378716e-06 0 -1.4407801311820715e-05 7.9052672898617541e-06 0 -8.9621889964144945e-06 7.1666294478537693e-06 0 -1.6898977397030135e-05 5.6693503728194919e-06 0 -9.6521862661979766e-06 2.9575784962378716e-06 0 -1.4407801311820715e-05 7.9052672898617541e-06 0 -1.4407801311820715e-05 7.9052672898617541e-06 0 -8.9621889964144945e-06 7.1666294478537693e-06 0 -1.2922716782486754e-05 1.2639260959567732e-05 0 -8.9621889964144945e-06 7.1666294478537693e-06 0 -3.7824619980386711e-06 4.110387275872821e-06 0 -3.9552810089274848e-06 1.0406955177667096e-05 0 -3.7824619980386711e-06 4.110387275872821e-06 0 4.9042046507918298e-07 5.5576345708618583e-06 0 -3.9552810089274848e-06 1.0406955177667096e-05 0 -3.7824619980386711e-06 4.110387275872821e-06 0 -4.3363153680406858e-08 2.0179310429399189e-06 0 4.9042046507918298e-07 5.5576345708618583e-06 0 -9.6521862661979766e-06 2.9575784962378716e-06 0 -8.9621889964144945e-06 7.1666294478537693e-06 0 -3.7824619980386711e-06 4.110387275872821e-06 0 -9.6521862661979766e-06 2.9575784962378716e-06 0 -3.7824619980386711e-06 4.110387275872821e-06 0 -3.5740410516641504e-06 1.3167838701561706e-06 0 -6.2306067701225927e-06 6.4154223028836432e-07 0 -9.6521862661979766e-06 2.9575784962378716e-06 0 -3.5740410516641504e-06 1.3167838701561706e-06 0 -3.7717531475543865e-06 -8.265333673527804e-07 0 -6.2306067701225927e-06 6.4154223028836432e-07 0 -3.5740410516641504e-06 1.3167838701561706e-06 0 -3.7717531475543865e-06 -8.265333673527804e-07 0 -3.5740410516641504e-06 1.3167838701561706e-06 0 -5.5549638221309339e-07 -2.1525862895325306e-07 0 -3.5740410516641504e-06 1.3167838701561706e-06 0 -5.5549638221309339e-07 -2.1525862895325306e-07 0 -4.3363153680406858e-08 2.0179310429399189e-06 0 -3.7824619980386711e-06 4.110387275872821e-06 0 -3.5740410516641504e-06 1.3167838701561706e-06 0 -4.3363153680406858e-08 2.0179310429399189e-06 0 -5.5549638221309339e-07 -2.1525862895325306e-07 0 -4.3363153680406858e-08 2.0179310429399189e-06 0 2.5252269422659464e-06 5.4775389829859883e-07 0 -4.3363153680406858e-08 2.0179310429399189e-06 0 2.5252269422659464e-06 5.4775389829859883e-07 0 3.7415742582438416e-06 3.2864906047753134e-06 0 1.5339189944131343e-06 -1.2372160923090465e-06 0 -5.5549638221309339e-07 -2.1525862895325306e-07 0 2.5252269422659464e-06 5.4775389829859883e-07 0 2.5252269422659464e-06 5.4775389829859883e-07 0 4.1139388324562187e-06 -5.9778619732351624e-08 0 5.5849211011529012e-06 1.5315494319142204e-06 0 1.5339189944131343e-06 -1.2372160923090465e-06 0 2.5252269422659464e-06 5.4775389829859883e-07 0 4.1139388324562187e-06 -5.9778619732351624e-08 0 2.5252269422659464e-06 5.4775389829859883e-07 0 3.7415742582438416e-06 3.2864906047753134e-06 0 5.5849211011529012e-06 1.5315494319142204e-06 0 3.7415742582438416e-06 3.2864906047753134e-06 0 5.5849211011529012e-06 1.5315494319142204e-06 0 8.0738080227771605e-06 4.5344662783484408e-06 0 -4.3363153680406858e-08 2.0179310429399189e-06 0 3.7415742582438416e-06 3.2864906047753134e-06 0 4.9042046507918298e-07 5.5576345708618583e-06 0 3.7415742582438416e-06 3.2864906047753134e-06 0 4.9042046507918298e-07 5.5576345708618583e-06 0 4.6735902219758569e-06 7.7277521114159893e-06 0 3.7415742582438416e-06 3.2864906047753134e-06 0 4.6735902219758569e-06 7.7277521114159893e-06 0 8.0738080227771605e-06 4.5344662783484408e-06 0 4.6735902219758569e-06 7.7277521114159893e-06 0 8.0245720118154958e-06 1.1853377987118976e-05 0 1.0942522314818705e-05 8.2007456885667682e-06 0 4.6735902219758569e-06 7.7277521114159893e-06 0 8.0738080227771605e-06 4.5344662783484408e-06 0 1.0942522314818705e-05 8.2007456885667682e-06 0 4.6735902219758569e-06 7.7277521114159893e-06 0 2.0301519869544449e-06 1.3645119575587551e-05 0 -3.9552810089274848e-06 1.0406955177667096e-05 0 4.9042046507918298e-07 5.5576345708618583e-06 0 4.6735902219758569e-06 7.7277521114159893e-06 0 -3.9552810089274848e-06 1.0406955177667096e-05 0 4.6735902219758569e-06 7.7277521114159893e-06 0 2.0301519869544449e-06 1.3645119575587551e-05 0 8.0245720118154958e-06 1.1853377987118976e-05 0 8.0245720118154958e-06 1.1853377987118976e-05 0 5.8633561031388458e-06 1.9697550583331234e-05 0 1.4065417516611069e-05 1.3635338138854306e-05 0 5.8633561031388458e-06 1.9697550583331234e-05 0 1.4065417516611069e-05 1.3635338138854306e-05 0 1.2989549723357779e-05 2.7424499816872922e-05 0 5.8633561031388458e-06 1.9697550583331234e-05 0 5.6469578826363739e-06 3.0607522747065043e-05 0 1.2989549723357779e-05 2.7424499816872922e-05 0 5.8633561031388458e-06 1.9697550583331234e-05 0 -2.4112000100434754e-06 3.2826967091114412e-05 0 5.6469578826363739e-06 3.0607522747065043e-05 0 2.0301519869544449e-06 1.3645119575587551e-05 0 5.8633561031388458e-06 1.9697550583331234e-05 0 -5.2187181245600199e-06 2.1205495507538132e-05 0 2.0301519869544449e-06 1.3645119575587551e-05 0 8.0245720118154958e-06 1.1853377987118976e-05 0 5.8633561031388458e-06 1.9697550583331234e-05 0 5.8633561031388458e-06 1.9697550583331234e-05 0 -5.2187181245600199e-06 2.1205495507538132e-05 0 -2.4112000100434754e-06 3.2826967091114412e-05 0 -5.2187181245600199e-06 2.1205495507538132e-05 0 -1.3550952529024212e-05 3.3953093332704431e-05 0 -2.4112000100434754e-06 3.2826967091114412e-05 0 -5.2187181245600199e-06 2.1205495507538132e-05 0 -1.1939645895464753e-05 1.9327520006532351e-05 0 -1.3550952529024212e-05 3.3953093332704431e-05 0 -5.2187181245600199e-06 2.1205495507538132e-05 0 -3.9552810089274848e-06 1.0406955177667096e-05 0 -1.1939645895464753e-05 1.9327520006532351e-05 0 -3.9552810089274848e-06 1.0406955177667096e-05 0 -1.2922716782486754e-05 1.2639260959567732e-05 0 -1.1939645895464753e-05 1.9327520006532351e-05 0 2.0301519869544449e-06 1.3645119575587551e-05 0 -5.2187181245600199e-06 2.1205495507538132e-05 0 -3.9552810089274848e-06 1.0406955177667096e-05 0 -8.9621889964144945e-06 7.1666294478537693e-06 0 -3.9552810089274848e-06 1.0406955177667096e-05 0 -1.2922716782486754e-05 1.2639260959567732e-05 0 -1.4407801311820715e-05 7.9052672898617541e-06 0 -1.2922716782486754e-05 1.2639260959567732e-05 0 -2.0709285735658863e-05 1.3880159894467317e-05 0 -1.2922716782486754e-05 1.2639260959567732e-05 0 -1.9271433331603692e-05 2.0112325987826451e-05 0 -2.0709285735658863e-05 1.3880159894467317e-05 0 -1.2922716782486754e-05 1.2639260959567732e-05 0 -1.9271433331603692e-05 2.0112325987826451e-05 0 -1.1939645895464753e-05 1.9327520006532351e-05 0 -1.9271433331603692e-05 2.0112325987826451e-05 0 -1.1939645895464753e-05 1.9327520006532351e-05 0 -2.0250930848419406e-05 2.8274541639453531e-05 0 -1.1939645895464753e-05 1.9327520006532351e-05 0 -2.0250930848419406e-05 2.8274541639453531e-05 0 -1.3550952529024212e-05 3.3953093332704431e-05 0 -2.0250930848419406e-05 2.8274541639453531e-05 0 -2.8749572980060847e-05 2.8873129873191262e-05 0 -2.8692366560784438e-05 4.1627698332567066e-05 0 -2.0250930848419406e-05 2.8274541639453531e-05 0 -2.8692366560784438e-05 4.1627698332567066e-05 0 -1.3550952529024212e-05 3.3953093332704431e-05 0 -1.9271433331603692e-05 2.0112325987826451e-05 0 -2.0250930848419406e-05 2.8274541639453531e-05 0 -2.8749572980060847e-05 2.8873129873191262e-05 0 -1.9271433331603692e-05 2.0112325987826451e-05 0 -2.8749572980060847e-05 2.8873129873191262e-05 0 -2.7108453071187699e-05 2.0482350940080742e-05 0 -2.8749572980060847e-05 2.8873129873191262e-05 0 -4.2264990304827021e-05 3.7864939027188955e-05 0 -2.8692366560784438e-05 4.1627698332567066e-05 0 -2.8749572980060847e-05 2.8873129873191262e-05 0 -3.6478584439523807e-05 2.5781210223685146e-05 0 -4.2264990304827021e-05 3.7864939027188955e-05 0 -2.8749572980060847e-05 2.8873129873191262e-05 0 -3.6478584439523807e-05 2.5781210223685146e-05 0 -2.7108453071187699e-05 2.0482350940080742e-05 0 -3.6478584439523807e-05 2.5781210223685146e-05 0 -2.7108453071187699e-05 2.0482350940080742e-05 0 -3.0252356354679165e-05 1.6343251195500902e-05 0 -2.7108453071187699e-05 2.0482350940080742e-05 0 -2.0709285735658863e-05 1.3880159894467317e-05 0 -3.0252356354679165e-05 1.6343251195500902e-05 0 -1.9271433331603692e-05 2.0112325987826451e-05 0 -2.7108453071187699e-05 2.0482350940080742e-05 0 -2.0709285735658863e-05 1.3880159894467317e-05 0 -2.1049309710573005e-05 9.8017217783239356e-06 0 -2.0709285735658863e-05 1.3880159894467317e-05 0 -3.0252356354679165e-05 1.6343251195500902e-05 0 9.8810240357620798e-06 2.0400348788690817e-06 0 9.8117674093682531e-06 2.2144299643872916e-06 0 1.1051317218809981e-05 2.9317670284610259e-06 0 9.8117674093682531e-06 2.2144299643872916e-06 0 1.1051317218809981e-05 2.9317670284610259e-06 0 1.1625966305271218e-05 3.7578524431419949e-06 0 1.1051317218809981e-05 2.9317670284610259e-06 0 1.1625966305271218e-05 3.7578524431419949e-06 0 1.2841110784354853e-05 4.4185936314622426e-06 0 9.8810240357620798e-06 2.0400348788690817e-06 0 1.1051317218809981e-05 2.9317670284610259e-06 0 1.0573713688235556e-05 1.9706689037205917e-06 0 1.0573713688235556e-05 1.9706689037205917e-06 0 9.0066787807227793e-06 1.216787818623027e-06 0 9.4784036190085985e-06 4.189726577837282e-07 0 9.8810240357620798e-06 2.0400348788690817e-06 0 1.0573713688235556e-05 1.9706689037205917e-06 0 9.0066787807227793e-06 1.216787818623027e-06 0 8.3647873742335178e-06 1.6228766791786006e-07 0 9.0066787807227793e-06 1.216787818623027e-06 0 9.4784036190085985e-06 4.189726577837282e-07 0 9.8810240357620798e-06 2.0400348788690817e-06 0 9.0066787807227793e-06 1.216787818623027e-06 0 8.6335782801677021e-06 1.4930312206240154e-06 0 9.0066787807227793e-06 1.216787818623027e-06 0 7.5691022234282118e-06 1.0224250384204709e-06 0 8.6335782801677021e-06 1.4930312206240154e-06 0 7.5182620391389775e-06 5.432475595390688e-07 0 9.0066787807227793e-06 1.216787818623027e-06 0 7.5691022234282118e-06 1.0224250384204709e-06 0 6.2795517342215902e-06 1.0150328898483674e-06 0 7.5691022234282118e-06 1.0224250384204709e-06 0 7.2561099343157931e-06 1.0401395328654998e-06 0 7.5691022234282118e-06 1.0224250384204709e-06 0 7.2561099343157931e-06 1.0401395328654998e-06 0 8.6335782801677021e-06 1.4930312206240154e-06 0 7.2561099343157931e-06 1.0401395328654998e-06 0 8.6335782801677021e-06 1.4930312206240154e-06 0 8.0169999890047242e-06 1.1452683503711188e-06 0 9.8810240357620798e-06 2.0400348788690817e-06 0 9.8117674093682531e-06 2.2144299643872916e-06 0 8.6335782801677021e-06 1.4930312206240154e-06 0 9.8117674093682531e-06 2.2144299643872916e-06 0 8.6335782801677021e-06 1.4930312206240154e-06 0 8.0169999890047242e-06 1.1452683503711188e-06 0 9.8117674093682531e-06 2.2144299643872916e-06 0 8.0169999890047242e-06 1.1452683503711188e-06 0 8.1417049258935862e-06 1.2437479066896534e-06 0 7.1614520562962486e-06 6.5691279167746948e-07 0 8.0169999890047242e-06 1.1452683503711188e-06 0 8.1417049258935862e-06 1.2437479066896534e-06 0 5.7016813046040708e-06 -2.306568493189253e-07 0 8.1417049258935862e-06 1.2437479066896534e-06 0 6.2217458944493746e-06 4.768659689882715e-07 0 8.1417049258935862e-06 1.2437479066896534e-06 0 8.3185013659141178e-06 2.3032189834187449e-06 0 9.8566147344673827e-06 2.6678132435604033e-06 0 8.1417049258935862e-06 1.2437479066896534e-06 0 6.2217458944493746e-06 4.768659689882715e-07 0 8.3185013659141178e-06 2.3032189834187449e-06 0 9.8117674093682531e-06 2.2144299643872916e-06 0 8.1417049258935862e-06 1.2437479066896534e-06 0 9.8566147344673827e-06 2.6678132435604033e-06 0 4.1139388324562187e-06 -5.9778619732351624e-08 0 6.2217458944493746e-06 4.768659689882715e-07 0 5.5849211011529012e-06 1.5315494319142204e-06 0 6.2217458944493746e-06 4.768659689882715e-07 0 5.5849211011529012e-06 1.5315494319142204e-06 0 8.3185013659141178e-06 2.3032189834187449e-06 0 5.5849211011529012e-06 1.5315494319142204e-06 0 8.3185013659141178e-06 2.3032189834187449e-06 0 8.0738080227771605e-06 4.5344662783484408e-06 0 8.3185013659141178e-06 2.3032189834187449e-06 0 1.1365439576445057e-05 4.7921935179158863e-06 0 8.0738080227771605e-06 4.5344662783484408e-06 0 1.1365439576445057e-05 4.7921935179158863e-06 0 8.0738080227771605e-06 4.5344662783484408e-06 0 1.0942522314818705e-05 8.2007456885667682e-06 0 9.8117674093682531e-06 2.2144299643872916e-06 0 9.8566147344673827e-06 2.6678132435604033e-06 0 1.1625966305271218e-05 3.7578524431419949e-06 0 8.3185013659141178e-06 2.3032189834187449e-06 0 1.1365439576445057e-05 4.7921935179158863e-06 0 9.8566147344673827e-06 2.6678132435604033e-06 0 1.1365439576445057e-05 4.7921935179158863e-06 0 9.8566147344673827e-06 2.6678132435604033e-06 0 1.1625966305271218e-05 3.7578524431419949e-06 0 1.1365439576445057e-05 4.7921935179158863e-06 0 1.1625966305271218e-05 3.7578524431419949e-06 0 1.3585591769405432e-05 5.8311573210446351e-06 0 1.1625966305271218e-05 3.7578524431419949e-06 0 1.3585591769405432e-05 5.8311573210446351e-06 0 1.2841110784354853e-05 4.4185936314622426e-06 0 1.1365439576445057e-05 4.7921935179158863e-06 0 1.3585591769405432e-05 5.8311573210446351e-06 0 1.6036500479819236e-05 9.0677640413474387e-06 0 1.3585591769405432e-05 5.8311573210446351e-06 0 1.6036500479819236e-05 9.0677640413474387e-06 0 1.5275081174881065e-05 6.5216105048741028e-06 0 1.5275081174881065e-05 6.5216105048741028e-06 0 1.3329225881847576e-05 3.9124710477960262e-06 0 1.2841110784354853e-05 4.4185936314622426e-06 0 1.3585591769405432e-05 5.8311573210446351e-06 0 1.5275081174881065e-05 6.5216105048741028e-06 0 1.2841110784354853e-05 4.4185936314622426e-06 0 1.1365439576445057e-05 4.7921935179158863e-06 0 1.0942522314818705e-05 8.2007456885667682e-06 0 1.6036500479819236e-05 9.0677640413474387e-06 0 1.0942522314818705e-05 8.2007456885667682e-06 0 1.6036500479819236e-05 9.0677640413474387e-06 0 1.4065417516611069e-05 1.3635338138854306e-05 0 8.0245720118154958e-06 1.1853377987118976e-05 0 1.0942522314818705e-05 8.2007456885667682e-06 0 1.4065417516611069e-05 1.3635338138854306e-05 0 1.6036500479819236e-05 9.0677640413474387e-06 0 1.4065417516611069e-05 1.3635338138854306e-05 0 2.4101257729049862e-05 1.5022447590181521e-05 0 1.4065417516611069e-05 1.3635338138854306e-05 0 2.4101257729049862e-05 1.5022447590181521e-05 0 1.2989549723357779e-05 2.7424499816872922e-05 0 1.6036500479819236e-05 9.0677640413474387e-06 0 1.7659079694421884e-05 8.9086706866699265e-06 0 2.4101257729049862e-05 1.5022447590181521e-05 0 1.5275081174881065e-05 6.5216105048741028e-06 0 1.7659079694421884e-05 8.9086706866699265e-06 0 1.4293917479624223e-05 3.9555713432130006e-06 0 1.5275081174881065e-05 6.5216105048741028e-06 0 1.4293917479624223e-05 3.9555713432130006e-06 0 1.3329225881847576e-05 3.9124710477960262e-06 0 1.6036500479819236e-05 9.0677640413474387e-06 0 1.5275081174881065e-05 6.5216105048741028e-06 0 1.7659079694421884e-05 8.9086706866699265e-06 0 1.7659079694421884e-05 8.9086706866699265e-06 0 1.4293917479624223e-05 3.9555713432130006e-06 0 1.5282415302344584e-05 1.3592591023531834e-06 0 1.4293917479624223e-05 3.9555713432130006e-06 0 1.3478430091977922e-05 -2.3543694625244e-06 0 1.5282415302344584e-05 1.3592591023531834e-06 0 1.4293917479624223e-05 3.9555713432130006e-06 0 1.2108478033978528e-05 8.0241541659593781e-07 0 1.3478430091977922e-05 -2.3543694625244e-06 0 1.4293917479624223e-05 3.9555713432130006e-06 0 1.2108478033978528e-05 8.0241541659593781e-07 0 1.3329225881847576e-05 3.9124710477960262e-06 0 1.3329225881847576e-05 3.9124710477960262e-06 0 1.1919146312284654e-05 2.9126164953326943e-06 0 1.2841110784354853e-05 4.4185936314622426e-06 0 1.2108478033978528e-05 8.0241541659593781e-07 0 1.3329225881847576e-05 3.9124710477960262e-06 0 1.1919146312284654e-05 2.9126164953326943e-06 0 1.2108478033978528e-05 8.0241541659593781e-07 0 1.1919146312284654e-05 2.9126164953326943e-06 0 1.0755436388130673e-05 5.8654390646017282e-07 0 1.0573713688235556e-05 1.9706689037205917e-06 0 1.1919146312284654e-05 2.9126164953326943e-06 0 1.0755436388130673e-05 5.8654390646017282e-07 0 1.1051317218809981e-05 2.9317670284610259e-06 0 1.0573713688235556e-05 1.9706689037205917e-06 0 1.1919146312284654e-05 2.9126164953326943e-06 0 1.1051317218809981e-05 2.9317670284610259e-06 0 1.1919146312284654e-05 2.9126164953326943e-06 0 1.2841110784354853e-05 4.4185936314622426e-06 0 1.0573713688235556e-05 1.9706689037205917e-06 0 9.4784036190085985e-06 4.189726577837282e-07 0 1.0755436388130673e-05 5.8654390646017282e-07 0 9.3134017187640586e-06 -1.7184271055569997e-06 0 9.4784036190085985e-06 4.189726577837282e-07 0 1.0755436388130673e-05 5.8654390646017282e-07 0 1.2108478033978528e-05 8.0241541659593781e-07 0 1.0503024539166151e-05 -2.3857209232021805e-06 0 1.199122917813911e-05 -5.9325345390107713e-06 0 9.3134017187640586e-06 -1.7184271055569997e-06 0 9.4846707974187213e-06 -4.6115376186192282e-06 0 1.0503024539166151e-05 -2.3857209232021805e-06 0 9.3134017187640586e-06 -1.7184271055569997e-06 0 1.0755436388130673e-05 5.8654390646017282e-07 0 1.0503024539166151e-05 -2.3857209232021805e-06 0 1.2108478033978528e-05 8.0241541659593781e-07 0 1.0755436388130673e-05 5.8654390646017282e-07 0 1.0503024539166151e-05 -2.3857209232021805e-06 0 9.4846707974187213e-06 -4.6115376186192282e-06 0 1.0503024539166151e-05 -2.3857209232021805e-06 0 1.0602105825613071e-05 -7.0899198203980504e-06 0 1.0503024539166151e-05 -2.3857209232021805e-06 0 1.199122917813911e-05 -5.9325345390107713e-06 0 1.0602105825613071e-05 -7.0899198203980504e-06 0 1.199122917813911e-05 -5.9325345390107713e-06 0 1.0602105825613071e-05 -7.0899198203980504e-06 0 1.2889238444913211e-05 -1.0181462569545872e-05 0 1.199122917813911e-05 -5.9325345390107713e-06 0 1.2889238444913211e-05 -1.0181462569545872e-05 0 1.4476840803478397e-05 -9.8610460153867991e-06 0 1.0602105825613071e-05 -7.0899198203980504e-06 0 1.1358403997232253e-05 -1.055580819473197e-05 0 1.2889238444913211e-05 -1.0181462569545872e-05 0 1.1358403997232253e-05 -1.055580819473197e-05 0 1.2889238444913211e-05 -1.0181462569545872e-05 0 1.4510240688935198e-05 -1.4358708281436313e-05 0 1.2889238444913211e-05 -1.0181462569545872e-05 0 1.4510240688935198e-05 -1.4358708281436313e-05 0 1.4476840803478397e-05 -9.8610460153867991e-06 0 1.1358403997232253e-05 -1.055580819473197e-05 0 1.4510240688935198e-05 -1.4358708281436313e-05 0 1.202491901067778e-05 -1.3561547266166447e-05 0 1.8768317600979293e-05 -1.3051029538280102e-05 0 2.1044389719723707e-05 -1.7051319156070414e-05 0 1.8050055886302203e-05 -1.5907988509296708e-05 0 1.4476840803478397e-05 -9.8610460153867991e-06 0 1.8768317600979293e-05 -1.3051029538280102e-05 0 1.8050055886302203e-05 -1.5907988509296708e-05 0 1.4510240688935198e-05 -1.4358708281436313e-05 0 1.4476840803478397e-05 -9.8610460153867991e-06 0 1.8050055886302203e-05 -1.5907988509296708e-05 0 1.4476840803478397e-05 -9.8610460153867991e-06 0 1.6027354242154569e-05 -5.6022520817151294e-06 0 1.8768317600979293e-05 -1.3051029538280102e-05 0 1.2108478033978528e-05 8.0241541659593781e-07 0 1.199122917813911e-05 -5.9325345390107713e-06 0 1.3478430091977922e-05 -2.3543694625244e-06 0 1.4476840803478397e-05 -9.8610460153867991e-06 0 1.3478430091977922e-05 -2.3543694625244e-06 0 1.6027354242154569e-05 -5.6022520817151294e-06 0 1.199122917813911e-05 -5.9325345390107713e-06 0 1.4476840803478397e-05 -9.8610460153867991e-06 0 1.3478430091977922e-05 -2.3543694625244e-06 0 1.3478430091977922e-05 -2.3543694625244e-06 0 1.5282415302344584e-05 1.3592591023531834e-06 0 1.6027354242154569e-05 -5.6022520817151294e-06 0 1.7659079694421884e-05 8.9086706866699265e-06 0 1.5282415302344584e-05 1.3592591023531834e-06 0 1.8113882232785999e-05 1.3421763769993203e-06 0 1.5282415302344584e-05 1.3592591023531834e-06 0 1.8113882232785999e-05 1.3421763769993203e-06 0 1.6027354242154569e-05 -5.6022520817151294e-06 0 1.7659079694421884e-05 8.9086706866699265e-06 0 1.8113882232785999e-05 1.3421763769993203e-06 0 2.4101257729049862e-05 1.5022447590181521e-05 0 1.8113882232785999e-05 1.3421763769993203e-06 0 2.6380339290580171e-05 -5.3261046023085217e-06 0 2.122162046030375e-05 -1.0075685678453612e-05 0 1.8113882232785999e-05 1.3421763769993203e-06 0 1.6027354242154569e-05 -5.6022520817151294e-06 0 2.122162046030375e-05 -1.0075685678453612e-05 0 2.4101257729049862e-05 1.5022447590181521e-05 0 1.9158901740441847e-05 4.6736486967064513e-05 0 1.2989549723357779e-05 2.7424499816872922e-05 0 1.8113882232785999e-05 1.3421763769993203e-06 0 2.4101257729049862e-05 1.5022447590181521e-05 0 2.6380339290580171e-05 -5.3261046023085217e-06 0 9.501608009976753e-06 1.2029964862856949e-05 0 3.5399680212846028e-05 2.1726164354805903e-05 0 2.4101257729049862e-05 1.5022447590181521e-05 0 3.4804966626738756e-05 4.5377028694156354e-05 0 1.9158901740441847e-05 4.6736486967064513e-05 0 1.9158901740441847e-05 4.6736486967064513e-05 0 3.9749427876055992e-05 6.6449315800937159e-05 0 1.8332709986284259e-05 6.4522479100160833e-05 0 3.5399680212846028e-05 2.1726164354805903e-05 0 3.2243386278984117e-05 2.6657211588526941e-05 0 2.6380339290580171e-05 -5.3261046023085217e-06 0 2.6405377648933506e-05 -1.2659411345860547e-05 0 2.122162046030375e-05 -1.0075685678453612e-05 0 3.4804966626738756e-05 4.5377028694156354e-05 0 1.9158901740441847e-05 4.6736486967064513e-05 0 3.9749427876055992e-05 6.6449315800937159e-05 0 3.2243386278984117e-05 2.6657211588526941e-05 0 3.5538801651958571e-05 3.4510205742148321e-05 0 2.6405377648933506e-05 -1.2659411345860547e-05 0 2.3483249894786923e-05 -1.5716313934799282e-05 0 2.6596349687263145e-05 -1.6570616962057793e-05 0 3.9749427876055992e-05 6.6449315800937159e-05 0 3.0049454360733787e-05 7.8992534413341236e-05 0 1.8332709986284259e-05 6.4522479100160833e-05 0 1.6027354242154569e-05 -5.6022520817151294e-06 0 2.122162046030375e-05 -1.0075685678453612e-05 0 1.8768317600979293e-05 -1.3051029538280102e-05 0 2.6405377648933506e-05 -1.2659411345860547e-05 0 2.122162046030375e-05 -1.0075685678453612e-05 0 2.3483249894786923e-05 -1.5716313934799282e-05 0 2.122162046030375e-05 -1.0075685678453612e-05 0 2.3483249894786923e-05 -1.5716313934799282e-05 0 1.8768317600979293e-05 -1.3051029538280102e-05 0 2.3483249894786923e-05 -1.5716313934799282e-05 0 1.8768317600979293e-05 -1.3051029538280102e-05 0 2.1044389719723707e-05 -1.7051319156070414e-05 0 2.3483249894786923e-05 -1.5716313934799282e-05 0 2.1044389719723707e-05 -1.7051319156070414e-05 0 2.4350328144071186e-05 -1.9228438077204347e-05 0 2.3483249894786923e-05 -1.5716313934799282e-05 0 2.4350328144071186e-05 -1.9228438077204347e-05 0 2.6596349687263145e-05 -1.6570616962057793e-05 0 2.4350328144071186e-05 -1.9228438077204347e-05 0 2.6596349687263145e-05 -1.6570616962057793e-05 0 2.7409180782185857e-05 -1.8859077011372977e-05 0 2.1044389719723707e-05 -1.7051319156070414e-05 0 2.4350328144071186e-05 -1.9228438077204347e-05 0 2.1341021646774059e-05 -1.9354843076116397e-05 0 3.0049454360733787e-05 7.8992534413341236e-05 0 3.2978772870269934e-05 9.1154226653514725e-05 0 1.783656222945794e-05 8.47558114313892e-05 0 3.0049454360733787e-05 7.8992534413341236e-05 0 4.3483209662019534e-05 8.5162132562330561e-05 0 3.2978772870269934e-05 9.1154226653514725e-05 0 3.9749427876055992e-05 6.6449315800937159e-05 0 3.0049454360733787e-05 7.8992534413341236e-05 0 4.3483209662019534e-05 8.5162132562330561e-05 0 3.5538801651958571e-05 3.4510205742148321e-05 0 3.705316100221123e-05 4.2347413288511825e-05 0 4.3483209662019534e-05 8.5162132562330561e-05 0 3.2978772870269934e-05 9.1154226653514725e-05 0 4.6560003828356165e-05 0.00010363897571735236 0 3.2978772870269934e-05 9.1154226653514725e-05 0 4.6560003828356165e-05 0.00010363897571735236 0 2.7171607935646541e-05 0.00010168519077816577 0 4.6560003828356165e-05 0.00010363897571735236 0 3.3633220179861527e-05 0.00011410051955745668 0 2.7171607935646541e-05 0.00010168519077816577 0 4.6560003828356165e-05 0.00010363897571735236 0 4.9380207895228971e-05 0.00012193735120159261 0 3.3633220179861527e-05 0.00011410051955745668 0 2.7409180782185857e-05 -1.8859077011372977e-05 0 2.8532104819458296e-05 -2.030396965919596e-05 0 2.6452498361210894e-05 -2.1008034710250881e-05 0 3.705316100221123e-05 4.2347413288511825e-05 0 3.9044960977523591e-05 5.0782871986788239e-05 0 4.9380207895228971e-05 0.00012193735120159261 0 3.3633220179861527e-05 0.00011410051955745668 0 3.0611173955804563e-05 0.00012686618874838625 0 2.4350328144071186e-05 -1.9228438077204347e-05 0 2.3924157503432429e-05 -2.1293756710778179e-05 0 2.6452498361210894e-05 -2.1008034710250881e-05 0 2.4350328144071186e-05 -1.9228438077204347e-05 0 2.3924157503432429e-05 -2.1293756710778179e-05 0 2.1341021646774059e-05 -1.9354843076116397e-05 0 2.4350328144071186e-05 -1.9228438077204347e-05 0 2.7409180782185857e-05 -1.8859077011372977e-05 0 2.6452498361210894e-05 -2.1008034710250881e-05 0 2.3924157503432429e-05 -2.1293756710778179e-05 0 2.6452498361210894e-05 -2.1008034710250881e-05 0 2.492735621068955e-05 -2.2765882782279426e-05 0 2.6452498361210894e-05 -2.1008034710250881e-05 0 2.492735621068955e-05 -2.2765882782279426e-05 0 2.7930817715047139e-05 -2.2587458679370689e-05 0 2.3924157503432429e-05 -2.1293756710778179e-05 0 2.492735621068955e-05 -2.2765882782279426e-05 0 2.0894636672122077e-05 -2.145950141566628e-05 0 2.492735621068955e-05 -2.2765882782279426e-05 0 2.0894636672122077e-05 -2.145950141566628e-05 0 2.3693765280010642e-05 -2.3802422003700607e-05 0 2.3924157503432429e-05 -2.1293756710778179e-05 0 2.0894636672122077e-05 -2.145950141566628e-05 0 2.1341021646774059e-05 -1.9354843076116397e-05 0 2.0894636672122077e-05 -2.145950141566628e-05 0 1.6475551281669715e-05 -1.8402327353647964e-05 0 1.8671832048476082e-05 -1.8800537501185151e-05 0 2.0894636672122077e-05 -2.145950141566628e-05 0 2.1341021646774059e-05 -1.9354843076116397e-05 0 1.8671832048476082e-05 -1.8800537501185151e-05 0 2.0894636672122077e-05 -2.145950141566628e-05 0 1.7402127793671773e-05 -2.0635151695124108e-05 0 2.0607575740016329e-05 -2.3624771117045003e-05 0 1.7402127793671773e-05 -2.0635151695124108e-05 0 2.0607575740016329e-05 -2.3624771117045003e-05 0 1.6519339243200177e-05 -2.1547064400110382e-05 0 1.7402127793671773e-05 -2.0635151695124108e-05 0 1.6475551281669715e-05 -1.8402327353647964e-05 0 1.4645483797021109e-05 -1.8869332121824032e-05 0 2.0894636672122077e-05 -2.145950141566628e-05 0 1.7402127793671773e-05 -2.0635151695124108e-05 0 1.6475551281669715e-05 -1.8402327353647964e-05 0 1.4510240688935198e-05 -1.4358708281436313e-05 0 1.6475551281669715e-05 -1.8402327353647964e-05 0 1.8671832048476082e-05 -1.8800537501185151e-05 0 1.6475551281669715e-05 -1.8402327353647964e-05 0 1.3958433964198539e-05 -1.6413297329946485e-05 0 1.4645483797021109e-05 -1.8869332121824032e-05 0 1.4510240688935198e-05 -1.4358708281436313e-05 0 1.6475551281669715e-05 -1.8402327353647964e-05 0 1.3958433964198539e-05 -1.6413297329946485e-05 0 1.4510240688935198e-05 -1.4358708281436313e-05 0 1.202491901067778e-05 -1.3561547266166447e-05 0 1.3958433964198539e-05 -1.6413297329946485e-05 0 1.4510240688935198e-05 -1.4358708281436313e-05 0 1.8050055886302203e-05 -1.5907988509296708e-05 0 1.8671832048476082e-05 -1.8800537501185151e-05 0 2.1044389719723707e-05 -1.7051319156070414e-05 0 1.8050055886302203e-05 -1.5907988509296708e-05 0 2.1341021646774059e-05 -1.9354843076116397e-05 0 1.8050055886302203e-05 -1.5907988509296708e-05 0 2.1341021646774059e-05 -1.9354843076116397e-05 0 1.8671832048476082e-05 -1.8800537501185151e-05 0 -5.132600359972525e-05 6.8961367093516723e-05 0 -3.6742129383441354e-05 7.5157724016330476e-05 0 -3.7865483118985753e-05 5.9000315055051781e-05 0 -5.132600359972525e-05 6.8961367093516723e-05 0 -3.6742129383441354e-05 7.5157724016330476e-05 0 -5.421411672017923e-05 8.6769681732974864e-05 0 -3.6742129383441354e-05 7.5157724016330476e-05 0 -3.7865483118985753e-05 5.9000315055051781e-05 0 -2.6209130072372919e-05 5.9139454276034179e-05 0 -5.132600359972525e-05 6.8961367093516723e-05 0 -3.7865483118985753e-05 5.9000315055051781e-05 0 -4.7055197192612631e-05 5.2320485458341048e-05 0 -4.7055197192612631e-05 5.2320485458341048e-05 0 -4.2264990304827021e-05 3.7864939027188955e-05 0 -2.8692366560784438e-05 4.1627698332567066e-05 0 -3.7865483118985753e-05 5.9000315055051781e-05 0 -2.8692366560784438e-05 4.1627698332567066e-05 0 -2.6209130072372919e-05 5.9139454276034179e-05 0 -3.7865483118985753e-05 5.9000315055051781e-05 0 -4.7055197192612631e-05 5.2320485458341048e-05 0 -2.8692366560784438e-05 4.1627698332567066e-05 0 -2.8692366560784438e-05 4.1627698332567066e-05 0 -1.7941638580048777e-05 4.882189243459874e-05 0 -2.6209130072372919e-05 5.9139454276034179e-05 0 -2.8692366560784438e-05 4.1627698332567066e-05 0 -1.3550952529024212e-05 3.3953093332704431e-05 0 -1.7941638580048777e-05 4.882189243459874e-05 0 -1.7941638580048777e-05 4.882189243459874e-05 0 -1.6437607002604063e-05 6.0624167346657827e-05 0 -7.6107078439547929e-06 5.1206588954040502e-05 0 -1.7941638580048777e-05 4.882189243459874e-05 0 -1.6437607002604063e-05 6.0624167346657827e-05 0 -2.6209130072372919e-05 5.9139454276034179e-05 0 -1.6437607002604063e-05 6.0624167346657827e-05 0 -2.6209130072372919e-05 5.9139454276034179e-05 0 -2.171526135047986e-05 7.3816408635300564e-05 0 -3.6742129383441354e-05 7.5157724016330476e-05 0 -2.6209130072372919e-05 5.9139454276034179e-05 0 -2.171526135047986e-05 7.3816408635300564e-05 0 -1.6437607002604063e-05 6.0624167346657827e-05 0 -2.171526135047986e-05 7.3816408635300564e-05 0 -8.5091473870408444e-06 7.1480391435434481e-05 0 -8.5091473870408444e-06 7.1480391435434481e-05 0 4.5049786821020967e-06 6.7176306203410618e-05 0 1.366390530894083e-06 8.5430441468240437e-05 0 -8.5091473870408444e-06 7.1480391435434481e-05 0 -7.6107078439547929e-06 5.1206588954040502e-05 0 4.5049786821020967e-06 6.7176306203410618e-05 0 -7.6107078439547929e-06 5.1206588954040502e-05 0 5.9258020610514469e-06 4.555520597869291e-05 0 4.5049786821020967e-06 6.7176306203410618e-05 0 -1.6437607002604063e-05 6.0624167346657827e-05 0 -8.5091473870408444e-06 7.1480391435434481e-05 0 -7.6107078439547929e-06 5.1206588954040502e-05 0 -1.3550952529024212e-05 3.3953093332704431e-05 0 -1.7941638580048777e-05 4.882189243459874e-05 0 -7.6107078439547929e-06 5.1206588954040502e-05 0 -1.3550952529024212e-05 3.3953093332704431e-05 0 -7.6107078439547929e-06 5.1206588954040502e-05 0 -2.4112000100434754e-06 3.2826967091114412e-05 0 -7.6107078439547929e-06 5.1206588954040502e-05 0 -2.4112000100434754e-06 3.2826967091114412e-05 0 5.9258020610514469e-06 4.555520597869291e-05 0 -2.4112000100434754e-06 3.2826967091114412e-05 0 5.9258020610514469e-06 4.555520597869291e-05 0 5.6469578826363739e-06 3.0607522747065043e-05 0 5.9258020610514469e-06 4.555520597869291e-05 0 5.6469578826363739e-06 3.0607522747065043e-05 0 1.2989549723357779e-05 2.7424499816872922e-05 0 1.9158901740441847e-05 4.6736486967064513e-05 0 5.9258020610514469e-06 4.555520597869291e-05 0 1.2989549723357779e-05 2.7424499816872922e-05 0 1.9158901740441847e-05 4.6736486967064513e-05 0 5.9258020610514469e-06 4.555520597869291e-05 0 1.8332709986284259e-05 6.4522479100160833e-05 0 5.9258020610514469e-06 4.555520597869291e-05 0 4.5049786821020967e-06 6.7176306203410618e-05 0 1.8332709986284259e-05 6.4522479100160833e-05 0 4.5049786821020967e-06 6.7176306203410618e-05 0 1.8332709986284259e-05 6.4522479100160833e-05 0 1.783656222945794e-05 8.47558114313892e-05 0 3.0049454360733787e-05 7.8992534413341236e-05 0 1.8332709986284259e-05 6.4522479100160833e-05 0 1.783656222945794e-05 8.47558114313892e-05 0 4.5049786821020967e-06 6.7176306203410618e-05 0 1.783656222945794e-05 8.47558114313892e-05 0 1.366390530894083e-06 8.5430441468240437e-05 0 1.783656222945794e-05 8.47558114313892e-05 0 1.1520605085092074e-05 9.7228280463480238e-05 0 1.366390530894083e-06 8.5430441468240437e-05 0 1.783656222945794e-05 8.47558114313892e-05 0 1.1520605085092074e-05 9.7228280463480238e-05 0 2.7171607935646541e-05 0.00010168519077816577 0 3.2978772870269934e-05 9.1154226653514725e-05 0 1.783656222945794e-05 8.47558114313892e-05 0 2.7171607935646541e-05 0.00010168519077816577 0 3.3633220179861527e-05 0.00011410051955745668 0 2.7171607935646541e-05 0.00010168519077816577 0 1.4729374171114247e-05 0.0001144936269025358 0 3.3633220179861527e-05 0.00011410051955745668 0 1.4729374171114247e-05 0.0001144936269025358 0 3.0611173955804563e-05 0.00012686618874838625 0 1.1520605085092074e-05 9.7228280463480238e-05 0 2.7171607935646541e-05 0.00010168519077816577 0 1.4729374171114247e-05 0.0001144936269025358 0 1.1520605085092074e-05 9.7228280463480238e-05 0 1.4729374171114247e-05 0.0001144936269025358 0 -3.1214870165192727e-06 9.9581436507321548e-05 0 1.4729374171114247e-05 0.0001144936269025358 0 -5.1928867509549156e-06 0.00011585280640445078 0 -3.1214870165192727e-06 9.9581436507321548e-05 0 1.4729374171114247e-05 0.0001144936269025358 0 -5.1928867509549156e-06 0.00011585280640445078 0 -3.1042070385413093e-07 0.00013149271246919026 0 -5.1928867509549156e-06 0.00011585280640445078 0 -3.1214870165192727e-06 9.9581436507321548e-05 0 -1.8751748956481662e-05 0.00011436080738615059 0 -3.1214870165192727e-06 9.9581436507321548e-05 0 -1.4808031999584548e-05 9.078583916771537e-05 0 -1.8751748956481662e-05 0.00011436080738615059 0 -3.1214870165192727e-06 9.9581436507321548e-05 0 1.366390530894083e-06 8.5430441468240437e-05 0 -1.4808031999584548e-05 9.078583916771537e-05 0 1.1520605085092074e-05 9.7228280463480238e-05 0 -3.1214870165192727e-06 9.9581436507321548e-05 0 1.366390530894083e-06 8.5430441468240437e-05 0 -8.5091473870408444e-06 7.1480391435434481e-05 0 1.366390530894083e-06 8.5430441468240437e-05 0 -1.4808031999584548e-05 9.078583916771537e-05 0 -2.171526135047986e-05 7.3816408635300564e-05 0 -8.5091473870408444e-06 7.1480391435434481e-05 0 -1.4808031999584548e-05 9.078583916771537e-05 0 -2.171526135047986e-05 7.3816408635300564e-05 0 -2.8151406282114128e-05 8.7576991825425896e-05 0 -1.4808031999584548e-05 9.078583916771537e-05 0 -3.6742129383441354e-05 7.5157724016330476e-05 0 -2.171526135047986e-05 7.3816408635300564e-05 0 -2.8151406282114128e-05 8.7576991825425896e-05 0 -2.8151406282114128e-05 8.7576991825425896e-05 0 -2.8071295754476247e-05 0.00010081809105540759 0 -4.0901313638807539e-05 9.7429255125606695e-05 0 -2.8151406282114128e-05 8.7576991825425896e-05 0 -1.4808031999584548e-05 9.078583916771537e-05 0 -2.8071295754476247e-05 0.00010081809105540759 0 -1.4808031999584548e-05 9.078583916771537e-05 0 -1.8751748956481662e-05 0.00011436080738615059 0 -2.8071295754476247e-05 0.00010081809105540759 0 -5.1928867509549156e-06 0.00011585280640445078 0 -1.8751748956481662e-05 0.00011436080738615059 0 -1.646948812151126e-05 0.00013144873435374745 0 -1.8751748956481662e-05 0.00011436080738615059 0 -3.8361039937684481e-05 0.00011458548765440499 0 -2.9190659044131287e-05 0.00012697727836753054 0 -1.8751748956481662e-05 0.00011436080738615059 0 -2.8071295754476247e-05 0.00010081809105540759 0 -3.8361039937684481e-05 0.00011458548765440499 0 -2.8071295754476247e-05 0.00010081809105540759 0 -3.8361039937684481e-05 0.00011458548765440499 0 -4.0901313638807539e-05 9.7429255125606695e-05 0 -3.8361039937684481e-05 0.00011458548765440499 0 -5.6239104517050045e-05 0.00010556374040918308 0 -5.7418462214974586e-05 0.00012469691532757826 0 -3.8361039937684481e-05 0.00011458548765440499 0 -5.7418462214974586e-05 0.00012469691532757826 0 -4.2336598294626918e-05 0.00013242401015740055 0 -3.8361039937684481e-05 0.00011458548765440499 0 -5.6239104517050045e-05 0.00010556374040918308 0 -4.0901313638807539e-05 9.7429255125606695e-05 0 -5.6239104517050045e-05 0.00010556374040918308 0 -4.0901313638807539e-05 9.7429255125606695e-05 0 -5.421411672017923e-05 8.6769681732974864e-05 0 -3.6742129383441354e-05 7.5157724016330476e-05 0 -2.8151406282114128e-05 8.7576991825425896e-05 0 -4.0901313638807539e-05 9.7429255125606695e-05 0 -3.6742129383441354e-05 7.5157724016330476e-05 0 -4.0901313638807539e-05 9.7429255125606695e-05 0 -5.421411672017923e-05 8.6769681732974864e-05 0 -5.8635679018388158e-05 0.0001637588614092199 0 -3.3569041575501075e-05 0.00016415709630470787 0 -4.0620694213685087e-05 0.00018308580889324659 0 -5.8635679018388158e-05 0.0001637588614092199 0 -4.4146556490824579e-05 0.0001497000982998788 0 -3.3569041575501075e-05 0.00016415709630470787 0 -4.4146556490824579e-05 0.0001497000982998788 0 -3.0274922490445365e-05 0.00014245124387205442 0 -3.3569041575501075e-05 0.00016415709630470787 0 -5.8635679018388158e-05 0.0001637588614092199 0 -4.4146556490824579e-05 0.0001497000982998788 0 -5.8191184224139909e-05 0.00014409970962552424 0 -4.4146556490824579e-05 0.0001497000982998788 0 -5.8191184224139909e-05 0.00014409970962552424 0 -4.2336598294626918e-05 0.00013242401015740055 0 -5.8191184224139909e-05 0.00014409970962552424 0 -5.7418462214974586e-05 0.00012469691532757826 0 -4.2336598294626918e-05 0.00013242401015740055 0 -3.8361039937684481e-05 0.00011458548765440499 0 -4.2336598294626918e-05 0.00013242401015740055 0 -2.9190659044131287e-05 0.00012697727836753054 0 -4.4146556490824579e-05 0.0001497000982998788 0 -4.2336598294626918e-05 0.00013242401015740055 0 -3.0274922490445365e-05 0.00014245124387205442 0 -3.0274922490445365e-05 0.00014245124387205442 0 -2.9190659044131287e-05 0.00012697727836753054 0 -1.646948812151126e-05 0.00013144873435374745 0 -4.2336598294626918e-05 0.00013242401015740055 0 -3.0274922490445365e-05 0.00014245124387205442 0 -2.9190659044131287e-05 0.00012697727836753054 0 -1.8751748956481662e-05 0.00011436080738615059 0 -2.9190659044131287e-05 0.00012697727836753054 0 -1.646948812151126e-05 0.00013144873435374745 0 -3.0274922490445365e-05 0.00014245124387205442 0 -1.646948812151126e-05 0.00013144873435374745 0 -1.5801818987869648e-05 0.00014815304699247416 0 -1.5801818987869648e-05 0.00014815304699247416 0 -3.3569041575501075e-05 0.00016415709630470787 0 -1.4137388368530627e-05 0.00016568361176147638 0 -3.0274922490445365e-05 0.00014245124387205442 0 -1.5801818987869648e-05 0.00014815304699247416 0 -3.3569041575501075e-05 0.00016415709630470787 0 -3.3569041575501075e-05 0.00016415709630470787 0 -1.4137388368530627e-05 0.00016568361176147638 0 -2.1082398752684154e-05 0.00018491875260571024 0 -1.4137388368530627e-05 0.00016568361176147638 0 -1.3180637089326976e-06 0.00015414338379286064 0 8.9911408439248569e-07 0.00017528512209060248 0 -1.3180637089326976e-06 0.00015414338379286064 0 1.4804145045564644e-05 0.00016167205011588276 0 8.9911408439248569e-07 0.00017528512209060248 0 -1.3180637089326976e-06 0.00015414338379286064 0 1.0420236266490952e-05 0.00014358712667689286 0 1.4804145045564644e-05 0.00016167205011588276 0 -1.5801818987869648e-05 0.00014815304699247416 0 -1.4137388368530627e-05 0.00016568361176147638 0 -1.3180637089326976e-06 0.00015414338379286064 0 -1.646948812151126e-05 0.00013144873435374745 0 -1.5801818987869648e-05 0.00014815304699247416 0 -3.1042070385413093e-07 0.00013149271246919026 0 -1.5801818987869648e-05 0.00014815304699247416 0 -1.3180637089326976e-06 0.00015414338379286064 0 -3.1042070385413093e-07 0.00013149271246919026 0 -5.1928867509549156e-06 0.00011585280640445078 0 -1.646948812151126e-05 0.00013144873435374745 0 -3.1042070385413093e-07 0.00013149271246919026 0 -3.1042070385413093e-07 0.00013149271246919026 0 1.0420236266490952e-05 0.00014358712667689286 0 1.6141134878397249e-05 0.00013215968103529971 0 -1.3180637089326976e-06 0.00015414338379286064 0 -3.1042070385413093e-07 0.00013149271246919026 0 1.0420236266490952e-05 0.00014358712667689286 0 1.0420236266490952e-05 0.00014358712667689286 0 1.6141134878397249e-05 0.00013215968103529971 0 2.5331208135971374e-05 0.00014367781739430208 0 1.4729374171114247e-05 0.0001144936269025358 0 1.6141134878397249e-05 0.00013215968103529971 0 3.0611173955804563e-05 0.00012686618874838625 0 1.4729374171114247e-05 0.0001144936269025358 0 -3.1042070385413093e-07 0.00013149271246919026 0 1.6141134878397249e-05 0.00013215968103529971 0 1.6141134878397249e-05 0.00013215968103529971 0 3.0611173955804563e-05 0.00012686618874838625 0 2.5331208135971374e-05 0.00014367781739430208 0 3.0611173955804563e-05 0.00012686618874838625 0 2.5331208135971374e-05 0.00014367781739430208 0 3.9592447117485753e-05 0.00013652693243144419 0 2.5331208135971374e-05 0.00014367781739430208 0 1.4804145045564644e-05 0.00016167205011588276 0 3.2998403046718692e-05 0.00016360427711233625 0 2.5331208135971374e-05 0.00014367781739430208 0 3.2998403046718692e-05 0.00016360427711233625 0 4.0162463630178438e-05 0.00014893279440810037 0 1.0420236266490952e-05 0.00014358712667689286 0 2.5331208135971374e-05 0.00014367781739430208 0 1.4804145045564644e-05 0.00016167205011588276 0 1.4804145045564644e-05 0.00016167205011588276 0 3.2998403046718692e-05 0.00016360427711233625 0 2.1432875910603394e-05 0.00018321579318798781 0 3.2998403046718692e-05 0.00016360427711233625 0 2.1432875910603394e-05 0.00018321579318798781 0 4.0819214896133803e-05 0.00018032666964396947 0 2.1432875910603394e-05 0.00018321579318798781 0 3.8991991255444846e-05 0.0001980911763249234 0 1.9801095746001045e-05 0.00020373091312210492 0 2.1432875910603394e-05 0.00018321579318798781 0 3.8991991255444846e-05 0.0001980911763249234 0 4.0819214896133803e-05 0.00018032666964396947 0 3.8991991255444846e-05 0.0001980911763249234 0 3.2661253607583343e-05 0.0002111784501577344 0 1.9801095746001045e-05 0.00020373091312210492 0 3.8991991255444846e-05 0.0001980911763249234 0 3.2661253607583343e-05 0.0002111784501577344 0 4.9743358299331124e-05 0.00020794878079776337 0 3.2661253607583343e-05 0.0002111784501577344 0 4.9743358299331124e-05 0.00020794878079776337 0 4.4595788667609026e-05 0.00022078246733379535 0 3.2661253607583343e-05 0.0002111784501577344 0 2.3020800692504544e-05 0.00022276187380608731 0 4.4595788667609026e-05 0.00022078246733379535 0 3.2661253607583343e-05 0.0002111784501577344 0 2.3020800692504544e-05 0.00022276187380608731 0 1.9801095746001045e-05 0.00020373091312210492 0 1.9598719748427743e-06 0.00022350173912861796 0 7.8944134973317867e-07 0.0001976114995562074 0 -1.7331186662910959e-05 0.000204950017196465 0 1.9801095746001045e-05 0.00020373091312210492 0 1.9598719748427743e-06 0.00022350173912861796 0 7.8944134973317867e-07 0.0001976114995562074 0 2.3020800692504544e-05 0.00022276187380608731 0 1.9801095746001045e-05 0.00020373091312210492 0 1.9598719748427743e-06 0.00022350173912861796 0 7.8944134973317867e-07 0.0001976114995562074 0 8.9911408439248569e-07 0.00017528512209060248 0 -2.1082398752684154e-05 0.00018491875260571024 0 2.1432875910603394e-05 0.00018321579318798781 0 1.9801095746001045e-05 0.00020373091312210492 0 7.8944134973317867e-07 0.0001976114995562074 0 2.1432875910603394e-05 0.00018321579318798781 0 7.8944134973317867e-07 0.0001976114995562074 0 8.9911408439248569e-07 0.00017528512209060248 0 1.4804145045564644e-05 0.00016167205011588276 0 2.1432875910603394e-05 0.00018321579318798781 0 8.9911408439248569e-07 0.00017528512209060248 0 -1.4137388368530627e-05 0.00016568361176147638 0 8.9911408439248569e-07 0.00017528512209060248 0 -2.1082398752684154e-05 0.00018491875260571024 0 -3.3569041575501075e-05 0.00016415709630470787 0 -2.1082398752684154e-05 0.00018491875260571024 0 -4.0620694213685087e-05 0.00018308580889324659 0 -2.1082398752684154e-05 0.00018491875260571024 0 -1.7331186662910959e-05 0.000204950017196465 0 -3.6568963041803346e-05 0.00020114035562972154 0 -2.1082398752684154e-05 0.00018491875260571024 0 -3.6568963041803346e-05 0.00020114035562972154 0 -4.0620694213685087e-05 0.00018308580889324659 0 7.8944134973317867e-07 0.0001976114995562074 0 -2.1082398752684154e-05 0.00018491875260571024 0 -1.7331186662910959e-05 0.000204950017196465 0 1.9598719748427743e-06 0.00022350173912861796 0 -1.7331186662910959e-05 0.000204950017196465 0 -1.8509509265094574e-05 0.00022375100550421002 0 -1.8509509265094574e-05 0.00022375100550421002 0 -2.882763360551052e-05 0.00021335430834438441 0 -3.8746184181600802e-05 0.00022377595444615818 0 -1.7331186662910959e-05 0.000204950017196465 0 -1.8509509265094574e-05 0.00022375100550421002 0 -2.882763360551052e-05 0.00021335430834438441 0 -1.7331186662910959e-05 0.000204950017196465 0 -2.882763360551052e-05 0.00021335430834438441 0 -3.6568963041803346e-05 0.00020114035562972154 0 -2.882763360551052e-05 0.00021335430834438441 0 -3.6568963041803346e-05 0.00020114035562972154 0 -4.5519608311203766e-05 0.00021237646383437568 0 -2.882763360551052e-05 0.00021335430834438441 0 -4.5519608311203766e-05 0.00021237646383437568 0 -3.8746184181600802e-05 0.00022377595444615818 0 -4.5519608311203766e-05 0.00021237646383437568 0 -3.8746184181600802e-05 0.00022377595444615818 0 -5.8814618713220505e-05 0.00022386518563968479 0 -4.5519608311203766e-05 0.00021237646383437568 0 -5.8814618713220505e-05 0.00022386518563968479 0 -5.8892180619777237e-05 0.00020374347006626826 0 -3.6568963041803346e-05 0.00020114035562972154 0 -4.5519608311203766e-05 0.00021237646383437568 0 -5.8892180619777237e-05 0.00020374347006626826 0 -5.8892180619777237e-05 0.00020374347006626826 0 -4.0620694213685087e-05 0.00018308580889324659 0 -5.8844721924965128e-05 0.00018371448042149173 0 -3.6568963041803346e-05 0.00020114035562972154 0 -5.8892180619777237e-05 0.00020374347006626826 0 -4.0620694213685087e-05 0.00018308580889324659 0 -5.8635679018388158e-05 0.0001637588614092199 0 -4.0620694213685087e-05 0.00018308580889324659 0 -5.8844721924965128e-05 0.00018371448042149173 0 2.5272700952242882e-05 -2.5315784893338231e-05 0 2.5483193156130681e-05 -2.7286204834056146e-05 0 2.2793388139521863e-05 -2.5861396619470338e-05 0 2.5272700952242882e-05 -2.5315784893338231e-05 0 2.8515569707225457e-05 -2.6809026351227505e-05 0 2.8468356175439751e-05 -2.5266867491525508e-05 0 2.5272700952242882e-05 -2.5315784893338231e-05 0 2.6770301388428357e-05 -2.4285012824869949e-05 0 2.8468356175439751e-05 -2.5266867491525508e-05 0 2.5272700952242882e-05 -2.5315784893338231e-05 0 2.8515569707225457e-05 -2.6809026351227505e-05 0 2.5483193156130681e-05 -2.7286204834056146e-05 0 2.5483193156130681e-05 -2.7286204834056146e-05 0 2.2009508267981118e-05 -2.7376750376890883e-05 0 2.2793388139521863e-05 -2.5861396619470338e-05 0 2.2009508267981118e-05 -2.7376750376890883e-05 0 2.0019698100410693e-05 -2.521761894483358e-05 0 2.2793388139521863e-05 -2.5861396619470338e-05 0 2.2009508267981118e-05 -2.7376750376890883e-05 0 2.0019698100410693e-05 -2.521761894483358e-05 0 1.9552118237080241e-05 -2.6439860416855848e-05 0 2.0019698100410693e-05 -2.521761894483358e-05 0 2.2793388139521863e-05 -2.5861396619470338e-05 0 2.0607575740016329e-05 -2.3624771117045003e-05 0 2.0019698100410693e-05 -2.521761894483358e-05 0 2.0607575740016329e-05 -2.3624771117045003e-05 0 1.819993292079573e-05 -2.3600696732138127e-05 0 2.0607575740016329e-05 -2.3624771117045003e-05 0 1.819993292079573e-05 -2.3600696732138127e-05 0 1.6519339243200177e-05 -2.1547064400110382e-05 0 2.0894636672122077e-05 -2.145950141566628e-05 0 2.0607575740016329e-05 -2.3624771117045003e-05 0 2.3693765280010642e-05 -2.3802422003700607e-05 0 2.5272700952242882e-05 -2.5315784893338231e-05 0 2.0607575740016329e-05 -2.3624771117045003e-05 0 2.3693765280010642e-05 -2.3802422003700607e-05 0 2.5272700952242882e-05 -2.5315784893338231e-05 0 2.2793388139521863e-05 -2.5861396619470338e-05 0 2.0607575740016329e-05 -2.3624771117045003e-05 0 2.5272700952242882e-05 -2.5315784893338231e-05 0 2.3693765280010642e-05 -2.3802422003700607e-05 0 2.6770301388428357e-05 -2.4285012824869949e-05 0 2.492735621068955e-05 -2.2765882782279426e-05 0 2.3693765280010642e-05 -2.3802422003700607e-05 0 2.6770301388428357e-05 -2.4285012824869949e-05 0 2.492735621068955e-05 -2.2765882782279426e-05 0 2.7930817715047139e-05 -2.2587458679370689e-05 0 2.6770301388428357e-05 -2.4285012824869949e-05 0 2.8532104819458296e-05 -2.030396965919596e-05 0 2.6452498361210894e-05 -2.1008034710250881e-05 0 2.7930817715047139e-05 -2.2587458679370689e-05 0 2.7930817715047139e-05 -2.2587458679370689e-05 0 3.0263744419155101e-05 -2.1342890466740736e-05 0 3.0007512707334002e-05 -2.3642554239376966e-05 0 2.7930817715047139e-05 -2.2587458679370689e-05 0 2.6770301388428357e-05 -2.4285012824869949e-05 0 3.0007512707334002e-05 -2.3642554239376966e-05 0 4.9380207895228971e-05 0.00012193735120159261 0 3.0611173955804563e-05 0.00012686618874838625 0 3.9592447117485753e-05 0.00013652693243144419 0 4.9380207895228971e-05 0.00012193735120159261 0 5.2089623372131938e-05 0.00014013231360455284 0 3.9592447117485753e-05 0.00013652693243144419 0 2.8532104819458296e-05 -2.030396965919596e-05 0 2.7930817715047139e-05 -2.2587458679370689e-05 0 3.0263744419155101e-05 -2.1342890466740736e-05 0 3.9044960977523591e-05 5.0782871986788239e-05 0 4.1310464191879646e-05 5.9535561335495283e-05 0 2.5331208135971374e-05 0.00014367781739430208 0 3.9592447117485753e-05 0.00013652693243144419 0 4.0162463630178438e-05 0.00014893279440810037 0 5.2089623372131938e-05 0.00014013231360455284 0 3.9592447117485753e-05 0.00013652693243144419 0 4.0162463630178438e-05 0.00014893279440810037 0 3.2998403046718692e-05 0.00016360427711233625 0 4.0162463630178438e-05 0.00014893279440810037 0 5.4966178923481684e-05 0.0001587318482196572 0 4.1310464191879646e-05 5.9535561335495283e-05 0 4.3491759849675633e-05 6.7920751028882341e-05 0 3.0263744419155101e-05 -2.1342890466740736e-05 0 3.2604410310663702e-05 -2.2336433662063e-05 0 3.0007512707334002e-05 -2.3642554239376966e-05 0 5.2089623372131938e-05 0.00014013231360455284 0 4.0162463630178438e-05 0.00014893279440810037 0 5.4966178923481684e-05 0.0001587318482196572 0 4.3491759849675633e-05 6.7920751028882341e-05 0 4.8024856295192054e-05 7.7288087780002325e-05 0 3.2998403046718692e-05 0.00016360427711233625 0 5.4966178923481684e-05 0.0001587318482196572 0 4.0819214896133803e-05 0.00018032666964396947 0 2.6770301388428357e-05 -2.4285012824869949e-05 0 2.8468356175439751e-05 -2.5266867491525508e-05 0 3.0007512707334002e-05 -2.3642554239376966e-05 0 3.2604410310663702e-05 -2.2336433662063e-05 0 3.0007512707334002e-05 -2.3642554239376966e-05 0 3.188521327687281e-05 -2.5580662581932929e-05 0 2.8515569707225457e-05 -2.6809026351227505e-05 0 2.8468356175439751e-05 -2.5266867491525508e-05 0 3.188521327687281e-05 -2.5580662581932929e-05 0 2.8468356175439751e-05 -2.5266867491525508e-05 0 3.0007512707334002e-05 -2.3642554239376966e-05 0 3.188521327687281e-05 -2.5580662581932929e-05 0 3.188521327687281e-05 -2.5580662581932929e-05 0 3.4991136892560375e-05 -2.6716970861195091e-05 0 3.1827773404466194e-05 -2.8214931084115869e-05 0 2.8515569707225457e-05 -2.6809026351227505e-05 0 3.188521327687281e-05 -2.5580662581932929e-05 0 3.1827773404466194e-05 -2.8214931084115869e-05 0 3.2604410310663702e-05 -2.2336433662063e-05 0 3.188521327687281e-05 -2.5580662581932929e-05 0 3.5678784542611662e-05 -2.3701044850938019e-05 0 3.188521327687281e-05 -2.5580662581932929e-05 0 3.4991136892560375e-05 -2.6716970861195091e-05 0 3.5678784542611662e-05 -2.3701044850938019e-05 0 3.4991136892560375e-05 -2.6716970861195091e-05 0 3.1827773404466194e-05 -2.8214931084115869e-05 0 3.6438877106072891e-05 -2.9529791682492804e-05 0 5.4966178923481684e-05 0.0001587318482196572 0 4.0819214896133803e-05 0.00018032666964396947 0 5.7939503546181804e-05 0.00017742794883477867 0 4.8024856295192054e-05 7.7288087780002325e-05 0 4.5953235115687734e-05 8.4947719675321586e-05 0 3.4991136892560375e-05 -2.6716970861195091e-05 0 3.5678784542611662e-05 -2.3701044850938019e-05 0 3.9589588445062984e-05 -2.6051909490292219e-05 0 4.0819214896133803e-05 0.00018032666964396947 0 5.7939503546181804e-05 0.00017742794883477867 0 6.1435683024547915e-05 0.0001968384813412539 0 3.8991991255444846e-05 0.0001980911763249234 0 4.0819214896133803e-05 0.00018032666964396947 0 6.1435683024547915e-05 0.0001968384813412539 0 3.8991991255444846e-05 0.0001980911763249234 0 6.1435683024547915e-05 0.0001968384813412539 0 4.9743358299331124e-05 0.00020794878079776337 0 4.5953235115687734e-05 8.4947719675321586e-05 0 7.2033548266222725e-05 9.3611098801714066e-05 0 6.1435683024547915e-05 0.0001968384813412539 0 6.564479960319397e-05 0.00021701013433952091 0 4.9743358299331124e-05 0.00020794878079776337 0 6.564479960319397e-05 0.00021701013433952091 0 4.9743358299331124e-05 0.00020794878079776337 0 4.4595788667609026e-05 0.00022078246733379535 0 3.1827773404466194e-05 -2.8214931084115869e-05 0 3.6438877106072891e-05 -2.9529791682492804e-05 0 3.0931002190374054e-05 -3.1436991306908673e-05 0 3.4991136892560375e-05 -2.6716970861195091e-05 0 3.9589588445062984e-05 -2.6051909490292219e-05 0 3.6438877106072891e-05 -2.9529791682492804e-05 0 3.9589588445062984e-05 -2.6051909490292219e-05 0 4.3834909969735008e-05 -3.0288376171606829e-05 0 3.6438877106072891e-05 -2.9529791682492804e-05 0 4.3834909969735008e-05 -3.0288376171606829e-05 0 3.6438877106072891e-05 -2.9529791682492804e-05 0 3.8252521085017074e-05 -3.3672864789678953e-05 0 3.6438877106072891e-05 -2.9529791682492804e-05 0 3.8252521085017074e-05 -3.3672864789678953e-05 0 3.0931002190374054e-05 -3.1436991306908673e-05 0 3.0931002190374054e-05 -3.1436991306908673e-05 0 2.668879257629527e-05 -3.0334247671370196e-05 0 2.7822905484125125e-05 -3.4444516381273784e-05 0 3.8252521085017074e-05 -3.3672864789678953e-05 0 3.2761426181432139e-05 -3.4885913467757926e-05 0 3.0931002190374054e-05 -3.1436991306908673e-05 0 3.2761426181432139e-05 -3.4885913467757926e-05 0 3.0931002190374054e-05 -3.1436991306908673e-05 0 2.7822905484125125e-05 -3.4444516381273784e-05 0 3.1827773404466194e-05 -2.8214931084115869e-05 0 3.0931002190374054e-05 -3.1436991306908673e-05 0 2.8030470027327577e-05 -2.8842571140901493e-05 0 3.0931002190374054e-05 -3.1436991306908673e-05 0 2.8030470027327577e-05 -2.8842571140901493e-05 0 2.668879257629527e-05 -3.0334247671370196e-05 0 2.5483193156130681e-05 -2.7286204834056146e-05 0 2.8030470027327577e-05 -2.8842571140901493e-05 0 2.4168243657854425e-05 -2.8998144684884508e-05 0 2.8515569707225457e-05 -2.6809026351227505e-05 0 2.5483193156130681e-05 -2.7286204834056146e-05 0 2.8030470027327577e-05 -2.8842571140901493e-05 0 2.8515569707225457e-05 -2.6809026351227505e-05 0 3.1827773404466194e-05 -2.8214931084115869e-05 0 2.8030470027327577e-05 -2.8842571140901493e-05 0 2.2009508267981118e-05 -2.7376750376890883e-05 0 2.4168243657854425e-05 -2.8998144684884508e-05 0 2.1892735271374652e-05 -2.9217656756018386e-05 0 2.5483193156130681e-05 -2.7286204834056146e-05 0 2.2009508267981118e-05 -2.7376750376890883e-05 0 2.4168243657854425e-05 -2.8998144684884508e-05 0 2.4168243657854425e-05 -2.8998144684884508e-05 0 2.668879257629527e-05 -3.0334247671370196e-05 0 2.4159822795438956e-05 -3.1165388354157932e-05 0 2.8030470027327577e-05 -2.8842571140901493e-05 0 2.4168243657854425e-05 -2.8998144684884508e-05 0 2.668879257629527e-05 -3.0334247671370196e-05 0 2.4168243657854425e-05 -2.8998144684884508e-05 0 2.4159822795438956e-05 -3.1165388354157932e-05 0 2.1892735271374652e-05 -2.9217656756018386e-05 0 2.668879257629527e-05 -3.0334247671370196e-05 0 2.4159822795438956e-05 -3.1165388354157932e-05 0 2.7822905484125125e-05 -3.4444516381273784e-05 0 2.4159822795438956e-05 -3.1165388354157932e-05 0 2.7822905484125125e-05 -3.4444516381273784e-05 0 2.4341362981824176e-05 -3.3119876294612867e-05 0 2.4159822795438956e-05 -3.1165388354157932e-05 0 2.4341362981824176e-05 -3.3119876294612867e-05 0 2.2274103880872221e-05 -3.0901762094792107e-05 0 2.4341362981824176e-05 -3.3119876294612867e-05 0 2.2211638617977203e-05 -3.1398637521652609e-05 0 2.2274103880872221e-05 -3.0901762094792107e-05 0 2.2211638617977203e-05 -3.1398637521652609e-05 0 2.0023502865434986e-05 -2.9625609273995972e-05 0 2.2274103880872221e-05 -3.0901762094792107e-05 0 2.0023502865434986e-05 -2.9625609273995972e-05 0 2.2274103880872221e-05 -3.0901762094792107e-05 0 2.1892735271374652e-05 -2.9217656756018386e-05 0 2.4159822795438956e-05 -3.1165388354157932e-05 0 2.2274103880872221e-05 -3.0901762094792107e-05 0 2.1892735271374652e-05 -2.9217656756018386e-05 0 2.1925965799693801e-05 -3.0058564171261899e-05 0 1.9790960342958902e-05 -2.982445199368208e-05 0 2.2687570282953037e-05 -2.991224122219102e-05 0 2.2211638617977203e-05 -3.1398637521652609e-05 0 2.1925965799693801e-05 -3.0058564171261899e-05 0 1.9790960342958902e-05 -2.982445199368208e-05 0 2.2211638617977203e-05 -3.1398637521652609e-05 0 2.0023502865434986e-05 -2.9625609273995972e-05 0 1.9790960342958902e-05 -2.982445199368208e-05 0 1.9790960342958902e-05 -2.982445199368208e-05 0 1.8042415379390454e-05 -2.8614523022113545e-05 0 1.7584270528266038e-05 -2.9324760769951971e-05 0 2.0023502865434986e-05 -2.9625609273995972e-05 0 1.9790960342958902e-05 -2.982445199368208e-05 0 1.8042415379390454e-05 -2.8614523022113545e-05 0 1.8042415379390454e-05 -2.8614523022113545e-05 0 1.9261008595441793e-05 -2.791199142626219e-05 0 1.7086802849174002e-05 -2.7111989136683983e-05 0 1.8042415379390454e-05 -2.8614523022113545e-05 0 1.7086802849174002e-05 -2.7111989136683983e-05 0 1.5848356935325648e-05 -2.7589241652901821e-05 0 1.8042415379390454e-05 -2.8614523022113545e-05 0 1.5848356935325648e-05 -2.7589241652901821e-05 0 1.7584270528266038e-05 -2.9324760769951971e-05 0 2.0023502865434986e-05 -2.9625609273995972e-05 0 2.1892735271374652e-05 -2.9217656756018386e-05 0 1.9261008595441793e-05 -2.791199142626219e-05 0 2.0023502865434986e-05 -2.9625609273995972e-05 0 1.8042415379390454e-05 -2.8614523022113545e-05 0 1.9261008595441793e-05 -2.791199142626219e-05 0 2.2009508267981118e-05 -2.7376750376890883e-05 0 2.1892735271374652e-05 -2.9217656756018386e-05 0 1.9261008595441793e-05 -2.791199142626219e-05 0 2.2009508267981118e-05 -2.7376750376890883e-05 0 1.9261008595441793e-05 -2.791199142626219e-05 0 1.9552118237080241e-05 -2.6439860416855848e-05 0 2.0019698100410693e-05 -2.521761894483358e-05 0 1.9552118237080241e-05 -2.6439860416855848e-05 0 1.7951405675415862e-05 -2.5035137355901426e-05 0 1.9552118237080241e-05 -2.6439860416855848e-05 0 1.7951405675415862e-05 -2.5035137355901426e-05 0 1.793907191724814e-05 -2.647490700585753e-05 0 1.7951405675415862e-05 -2.5035137355901426e-05 0 1.793907191724814e-05 -2.647490700585753e-05 0 1.625071046069972e-05 -2.5222573431185399e-05 0 1.9261008595441793e-05 -2.791199142626219e-05 0 1.9552118237080241e-05 -2.6439860416855848e-05 0 1.793907191724814e-05 -2.647490700585753e-05 0 1.793907191724814e-05 -2.647490700585753e-05 0 1.7086802849174002e-05 -2.7111989136683983e-05 0 1.625071046069972e-05 -2.5222573431185399e-05 0 1.9261008595441793e-05 -2.791199142626219e-05 0 1.793907191724814e-05 -2.647490700585753e-05 0 1.7086802849174002e-05 -2.7111989136683983e-05 0 1.7086802849174002e-05 -2.7111989136683983e-05 0 1.5848356935325648e-05 -2.7589241652901821e-05 0 1.4448913561225927e-05 -2.5062125041907243e-05 0 1.5848356935325648e-05 -2.7589241652901821e-05 0 1.4448913561225927e-05 -2.5062125041907243e-05 0 1.4030583239421394e-05 -2.6518540625513448e-05 0 1.7086802849174002e-05 -2.7111989136683983e-05 0 1.4448913561225927e-05 -2.5062125041907243e-05 0 1.625071046069972e-05 -2.5222573431185399e-05 0 1.625071046069972e-05 -2.5222573431185399e-05 0 1.3533052824500619e-05 -2.3024002607540098e-05 0 1.6030365618819275e-05 -2.3375763103802352e-05 0 1.4448913561225927e-05 -2.5062125041907243e-05 0 1.625071046069972e-05 -2.5222573431185399e-05 0 1.3533052824500619e-05 -2.3024002607540098e-05 0 1.4448913561225927e-05 -2.5062125041907243e-05 0 1.3533052824500619e-05 -2.3024002607540098e-05 0 1.145961131484427e-05 -2.4058819133122526e-05 0 1.3533052824500619e-05 -2.3024002607540098e-05 0 1.6030365618819275e-05 -2.3375763103802352e-05 0 1.4356818454455864e-05 -2.0957204283323828e-05 0 1.6030365618819275e-05 -2.3375763103802352e-05 0 1.4356818454455864e-05 -2.0957204283323828e-05 0 1.6519339243200177e-05 -2.1547064400110382e-05 0 1.6030365618819275e-05 -2.3375763103802352e-05 0 1.819993292079573e-05 -2.3600696732138127e-05 0 1.6519339243200177e-05 -2.1547064400110382e-05 0 1.7951405675415862e-05 -2.5035137355901426e-05 0 1.6030365618819275e-05 -2.3375763103802352e-05 0 1.819993292079573e-05 -2.3600696732138127e-05 0 2.0019698100410693e-05 -2.521761894483358e-05 0 1.7951405675415862e-05 -2.5035137355901426e-05 0 1.819993292079573e-05 -2.3600696732138127e-05 0 1.7951405675415862e-05 -2.5035137355901426e-05 0 1.625071046069972e-05 -2.5222573431185399e-05 0 1.6030365618819275e-05 -2.3375763103802352e-05 0 2.5605627801327817e-05 -8.0375858132689462e-05 0 1.4956809346391867e-05 -7.4091684759387057e-05 0 1.7540330529769344e-05 -8.5444041372995257e-05 0 1.7775650671498257e-05 -5.3460109661593669e-05 0 1.5643249149859414e-05 -4.5684943584606776e-05 0 2.5605627801327817e-05 -8.0375858132689462e-05 0 1.4956809346391867e-05 -7.4091684759387057e-05 0 2.325254685113088e-05 -6.7932585394798309e-05 0 1.0081749079525458e-05 -2.6546335237118914e-05 0 1.145961131484427e-05 -2.4058819133122526e-05 0 8.1769641904869132e-06 -2.3419571459873621e-05 0 1.145961131484427e-05 -2.4058819133122526e-05 0 9.3920719190001361e-06 -2.1225729116258899e-05 0 8.1769641904869132e-06 -2.3419571459873621e-05 0 1.3533052824500619e-05 -2.3024002607540098e-05 0 1.145961131484427e-05 -2.4058819133122526e-05 0 1.140822184924362e-05 -2.1752212494088011e-05 0 1.145961131484427e-05 -2.4058819133122526e-05 0 1.140822184924362e-05 -2.1752212494088011e-05 0 9.3920719190001361e-06 -2.1225729116258899e-05 0 1.4448913561225927e-05 -2.5062125041907243e-05 0 1.145961131484427e-05 -2.4058819133122526e-05 0 1.4030583239421394e-05 -2.6518540625513448e-05 0 1.0081749079525458e-05 -2.6546335237118914e-05 0 1.145961131484427e-05 -2.4058819133122526e-05 0 1.2330335241356136e-05 -2.6854318812706121e-05 0 1.145961131484427e-05 -2.4058819133122526e-05 0 1.2330335241356136e-05 -2.6854318812706121e-05 0 1.4030583239421394e-05 -2.6518540625513448e-05 0 1.2330335241356136e-05 -2.6854318812706121e-05 0 1.4030583239421394e-05 -2.6518540625513448e-05 0 1.492475324626229e-05 -2.871391719168427e-05 0 1.5848356935325648e-05 -2.7589241652901821e-05 0 1.4030583239421394e-05 -2.6518540625513448e-05 0 1.492475324626229e-05 -2.871391719168427e-05 0 1.2330335241356136e-05 -2.6854318812706121e-05 0 1.492475324626229e-05 -2.871391719168427e-05 0 1.2523280827302105e-05 -2.9231185338516797e-05 0 1.492475324626229e-05 -2.871391719168427e-05 0 1.2523280827302105e-05 -2.9231185338516797e-05 0 1.5642435785243219e-05 -3.1261162940709236e-05 0 2.8088591778098776e-05 -9.351568100745136e-05 0 1.7540330529769344e-05 -8.5444041372995257e-05 0 1.2275846880530499e-05 -9.6098940456010282e-05 0 2.8088591778098776e-05 -9.351568100745136e-05 0 1.8837056567411236e-05 -0.00010882631495010963 0 1.2275846880530499e-05 -9.6098940456010282e-05 0 2.0065004576884622e-05 -6.1370598483543055e-05 0 2.3493736534994744e-05 -6.9332753292595191e-05 0 1.0081749079525458e-05 -2.6546335237118914e-05 0 1.2330335241356136e-05 -2.6854318812706121e-05 0 1.2523280827302105e-05 -2.9231185338516797e-05 0 2.5605627801327817e-05 -8.0375858132689462e-05 0 2.8088591778098776e-05 -9.351568100745136e-05 0 1.7540330529769344e-05 -8.5444041372995257e-05 0 1.7775650671498257e-05 -5.3460109661593669e-05 0 2.0065004576884622e-05 -6.1370598483543055e-05 0 2.8088591778098776e-05 -9.351568100745136e-05 0 1.8837056567411236e-05 -0.00010882631495010963 0 3.0904022283762354e-05 -0.00010712546409164501 0 2.3493736534994744e-05 -6.9332753292595191e-05 0 2.5221387813652097e-05 -7.6418515116204668e-05 0 1.5642435785243219e-05 -3.1261162940709236e-05 0 1.7364246632102546e-05 -3.0354613158939693e-05 0 1.9657034371805378e-05 -3.224593883629839e-05 0 1.8837056567411236e-05 -0.00010882631495010963 0 3.0904022283762354e-05 -0.00010712546409164501 0 3.4262977960106646e-05 -0.00012134114387115224 0 1.8837056567411236e-05 -0.00010882631495010963 0 3.4262977960106646e-05 -0.00012134114387115224 0 1.8607688631297317e-05 -0.00012197839099650923 0 1.5848356935325648e-05 -2.7589241652901821e-05 0 1.492475324626229e-05 -2.871391719168427e-05 0 1.7584270528266038e-05 -2.9324760769951971e-05 0 1.492475324626229e-05 -2.871391719168427e-05 0 1.7364246632102546e-05 -3.0354613158939693e-05 0 1.7584270528266038e-05 -2.9324760769951971e-05 0 1.492475324626229e-05 -2.871391719168427e-05 0 1.5642435785243219e-05 -3.1261162940709236e-05 0 1.7364246632102546e-05 -3.0354613158939693e-05 0 1.7364246632102546e-05 -3.0354613158939693e-05 0 1.7584270528266038e-05 -2.9324760769951971e-05 0 1.9837640668635839e-05 -3.038872289735079e-05 0 1.9790960342958902e-05 -2.982445199368208e-05 0 1.7584270528266038e-05 -2.9324760769951971e-05 0 1.9837640668635839e-05 -3.038872289735079e-05 0 1.7364246632102546e-05 -3.0354613158939693e-05 0 1.9837640668635839e-05 -3.038872289735079e-05 0 1.9657034371805378e-05 -3.224593883629839e-05 0 1.9837640668635839e-05 -3.038872289735079e-05 0 1.9657034371805378e-05 -3.224593883629839e-05 0 2.4325311843250694e-05 -3.1783414339993404e-05 0 1.9837640668635839e-05 -3.038872289735079e-05 0 2.2687570282953037e-05 -2.991224122219102e-05 0 2.4325311843250694e-05 -3.1783414339993404e-05 0 1.9790960342958902e-05 -2.982445199368208e-05 0 1.9837640668635839e-05 -3.038872289735079e-05 0 2.2687570282953037e-05 -2.991224122219102e-05 0 3.4262977960106646e-05 -0.00012134114387115224 0 2.6716825782238969e-05 -0.00012927253504141917 0 1.8607688631297317e-05 -0.00012197839099650923 0 2.5221387813652097e-05 -7.6418515116204668e-05 0 3.6873237944834318e-05 -8.4304047760414314e-05 0 3.4262977960106646e-05 -0.00012134114387115224 0 3.8937337464775718e-05 -0.0001359819111027314 0 2.6716825782238969e-05 -0.00012927253504141917 0 3.8937337464775718e-05 -0.0001359819111027314 0 2.6716825782238969e-05 -0.00012927253504141917 0 2.3834909069346193e-05 -0.00013832415554762128 0 2.6716825782238969e-05 -0.00012927253504141917 0 1.4869105662638366e-05 -0.00013117346191132839 0 2.3834909069346193e-05 -0.00013832415554762128 0 1.4869105662638366e-05 -0.00013117346191132839 0 2.3834909069346193e-05 -0.00013832415554762128 0 8.6380201329558198e-06 -0.00013901745013245278 0 1.4869105662638366e-05 -0.00013117346191132839 0 1.8607688631297317e-05 -0.00012197839099650923 0 5.8128001073434305e-06 -0.00012567186323000942 0 2.6716825782238969e-05 -0.00012927253504141917 0 1.4869105662638366e-05 -0.00013117346191132839 0 1.8607688631297317e-05 -0.00012197839099650923 0 1.4869105662638366e-05 -0.00013117346191132839 0 5.8128001073434305e-06 -0.00012567186323000942 0 8.6380201329558198e-06 -0.00013901745013245278 0 5.8128001073434305e-06 -0.00012567186323000942 0 -5.6505694428302554e-06 -0.00013894303742841989 0 -6.8814816281541269e-06 -0.00012103865938210149 0 -5.6505694428302554e-06 -0.00013894303742841989 0 -6.8814816281541269e-06 -0.00012103865938210149 0 -1.867470024166724e-05 -0.00012592142456761222 0 5.8128001073434305e-06 -0.00012567186323000942 0 8.6380201329558198e-06 -0.00013901745013245278 0 -5.6505694428302554e-06 -0.00013894303742841989 0 5.8128001073434305e-06 -0.00012567186323000942 0 -6.8814816281541269e-06 -0.00012103865938210149 0 6.3007032807056256e-06 -0.00011129544445274991 0 -6.8814816281541269e-06 -0.00012103865938210149 0 -8.6324446244649887e-06 -0.00010524337180107157 0 6.3007032807056256e-06 -0.00011129544445274991 0 -6.8814816281541269e-06 -0.00012103865938210149 0 -8.6324446244649887e-06 -0.00010524337180107157 0 -2.1263229080009258e-05 -0.00011164098719882339 0 -8.6324446244649887e-06 -0.00010524337180107157 0 6.3007032807056256e-06 -0.00011129544445274991 0 2.2796573798143266e-07 -9.8019613199768006e-05 0 1.8837056567411236e-05 -0.00010882631495010963 0 6.3007032807056256e-06 -0.00011129544445274991 0 1.2275846880530499e-05 -9.6098940456010282e-05 0 1.8837056567411236e-05 -0.00010882631495010963 0 1.8607688631297317e-05 -0.00012197839099650923 0 6.3007032807056256e-06 -0.00011129544445274991 0 1.8607688631297317e-05 -0.00012197839099650923 0 5.8128001073434305e-06 -0.00012567186323000942 0 6.3007032807056256e-06 -0.00011129544445274991 0 -4.6467361942053125e-05 -0.00012505637510757864 0 -3.7440973272979395e-05 -0.00013091870747752797 0 -3.1408334588624197e-05 -0.00012321058451324914 0 -4.6467361942053125e-05 -0.00012505637510757864 0 -4.6406269767676624e-05 -0.00013872877816760768 0 -3.7440973272979395e-05 -0.00013091870747752797 0 -4.6406269767676624e-05 -0.00013872877816760768 0 -3.2849984192859578e-05 -0.00013865377616683827 0 -3.7440973272979395e-05 -0.00013091870747752797 0 -3.2849984192859578e-05 -0.00013865377616683827 0 -3.7440973272979395e-05 -0.00013091870747752797 0 -2.6235240295459599e-05 -0.00013160710322703475 0 -3.7440973272979395e-05 -0.00013091870747752797 0 -3.1408334588624197e-05 -0.00012321058451324914 0 -2.6235240295459599e-05 -0.00013160710322703475 0 -3.1408334588624197e-05 -0.00012321058451324914 0 -2.6235240295459599e-05 -0.00013160710322703475 0 -1.867470024166724e-05 -0.00012592142456761222 0 -2.6235240295459599e-05 -0.00013160710322703475 0 -1.9252195145556372e-05 -0.0001387735046448788 0 -1.867470024166724e-05 -0.00012592142456761222 0 -3.2849984192859578e-05 -0.00013865377616683827 0 -2.6235240295459599e-05 -0.00013160710322703475 0 -1.9252195145556372e-05 -0.0001387735046448788 0 -5.6505694428302554e-06 -0.00013894303742841989 0 -1.9252195145556372e-05 -0.0001387735046448788 0 -1.867470024166724e-05 -0.00012592142456761222 0 -6.8814816281541269e-06 -0.00012103865938210149 0 -1.867470024166724e-05 -0.00012592142456761222 0 -2.1263229080009258e-05 -0.00011164098719882339 0 -8.6324446244649887e-06 -0.00010524337180107157 0 -2.1263229080009258e-05 -0.00011164098719882339 0 -1.8406820801364742e-05 -9.6089650033657755e-05 0 -2.1263229080009258e-05 -0.00011164098719882339 0 -3.420484793377336e-05 -0.00011103406992366736 0 -3.0139602405792754e-05 -9.8465586815257478e-05 0 -3.1408334588624197e-05 -0.00012321058451324914 0 -1.867470024166724e-05 -0.00012592142456761222 0 -2.1263229080009258e-05 -0.00011164098719882339 0 -3.1408334588624197e-05 -0.00012321058451324914 0 -2.1263229080009258e-05 -0.00011164098719882339 0 -3.420484793377336e-05 -0.00011103406992366736 0 -4.6467361942053125e-05 -0.00012505637510757864 0 -3.1408334588624197e-05 -0.00012321058451324914 0 -3.420484793377336e-05 -0.00011103406992366736 0 -3.420484793377336e-05 -0.00011103406992366736 0 -4.627983551179983e-05 -0.0001112834165341058 0 -4.5743315063320538e-05 -9.7476883456414022e-05 0 -4.6467361942053125e-05 -0.00012505637510757864 0 -3.420484793377336e-05 -0.00011103406992366736 0 -4.627983551179983e-05 -0.0001112834165341058 0 -4.5743315063320538e-05 -9.7476883456414022e-05 0 -3.5900084337975187e-05 -8.8713273605937876e-05 0 -4.4706926153635576e-05 -8.4104667156370831e-05 0 -3.420484793377336e-05 -0.00011103406992366736 0 -4.5743315063320538e-05 -9.7476883456414022e-05 0 -3.0139602405792754e-05 -9.8465586815257478e-05 0 -3.0139602405792754e-05 -9.8465586815257478e-05 0 -3.5900084337975187e-05 -8.8713273605937876e-05 0 -2.6196675993500385e-05 -8.391341565379786e-05 0 -4.5743315063320538e-05 -9.7476883456414022e-05 0 -3.0139602405792754e-05 -9.8465586815257478e-05 0 -3.5900084337975187e-05 -8.8713273605937876e-05 0 -3.0139602405792754e-05 -9.8465586815257478e-05 0 -1.8406820801364742e-05 -9.6089650033657755e-05 0 -2.6196675993500385e-05 -8.391341565379786e-05 0 -2.1263229080009258e-05 -0.00011164098719882339 0 -3.0139602405792754e-05 -9.8465586815257478e-05 0 -1.8406820801364742e-05 -9.6089650033657755e-05 0 -1.8406820801364742e-05 -9.6089650033657755e-05 0 -1.6636898384099315e-05 -8.34054341017425e-05 0 -2.6196675993500385e-05 -8.391341565379786e-05 0 -1.8406820801364742e-05 -9.6089650033657755e-05 0 -1.6636898384099315e-05 -8.34054341017425e-05 0 -8.6314531261718662e-06 -9.0314221095662045e-05 0 -1.6636898384099315e-05 -8.34054341017425e-05 0 -2.0665919829321787e-05 -7.5107521253536846e-05 0 -2.6196675993500385e-05 -8.391341565379786e-05 0 -2.0665919829321787e-05 -7.5107521253536846e-05 0 -1.0525397641945303e-05 -7.5447072309279927e-05 0 -1.8952412447851613e-05 -6.3897552839997375e-05 0 -1.6636898384099315e-05 -8.34054341017425e-05 0 -2.0665919829321787e-05 -7.5107521253536846e-05 0 -1.0525397641945303e-05 -7.5447072309279927e-05 0 -2.0665919829321787e-05 -7.5107521253536846e-05 0 -2.6196675993500385e-05 -8.391341565379786e-05 0 -3.0420941272388036e-05 -7.1255384747502786e-05 0 -3.5900084337975187e-05 -8.8713273605937876e-05 0 -2.6196675993500385e-05 -8.391341565379786e-05 0 -3.6196615495471454e-05 -7.9556476420781347e-05 0 -2.6196675993500385e-05 -8.391341565379786e-05 0 -3.6196615495471454e-05 -7.9556476420781347e-05 0 -3.0420941272388036e-05 -7.1255384747502786e-05 0 -3.6196615495471454e-05 -7.9556476420781347e-05 0 -3.0420941272388036e-05 -7.1255384747502786e-05 0 -4.3104748372838132e-05 -7.1147220757260943e-05 0 -3.6196615495471454e-05 -7.9556476420781347e-05 0 -4.4706926153635576e-05 -8.4104667156370831e-05 0 -4.3104748372838132e-05 -7.1147220757260943e-05 0 -3.5900084337975187e-05 -8.8713273605937876e-05 0 -3.6196615495471454e-05 -7.9556476420781347e-05 0 -4.4706926153635576e-05 -8.4104667156370831e-05 0 4.5809810788597915e-08 -8.6159864715605421e-05 0 1.2275846880530499e-05 -9.6098940456010282e-05 0 8.4490489409752144e-06 -8.1398487430797353e-05 0 4.5809810788597915e-08 -8.6159864715605421e-05 0 1.2275846880530499e-05 -9.6098940456010282e-05 0 2.2796573798143266e-07 -9.8019613199768006e-05 0 1.7540330529769344e-05 -8.5444041372995257e-05 0 1.2275846880530499e-05 -9.6098940456010282e-05 0 8.4490489409752144e-06 -8.1398487430797353e-05 0 6.3007032807056256e-06 -0.00011129544445274991 0 1.2275846880530499e-05 -9.6098940456010282e-05 0 2.2796573798143266e-07 -9.8019613199768006e-05 0 -8.6324446244649887e-06 -0.00010524337180107157 0 2.2796573798143266e-07 -9.8019613199768006e-05 0 -8.6314531261718662e-06 -9.0314221095662045e-05 0 -8.6324446244649887e-06 -0.00010524337180107157 0 -1.8406820801364742e-05 -9.6089650033657755e-05 0 -8.6314531261718662e-06 -9.0314221095662045e-05 0 4.5809810788597915e-08 -8.6159864715605421e-05 0 2.2796573798143266e-07 -9.8019613199768006e-05 0 -8.6314531261718662e-06 -9.0314221095662045e-05 0 4.5809810788597915e-08 -8.6159864715605421e-05 0 -1.0525397641945303e-05 -7.5447072309279927e-05 0 -6.1358984366585794e-07 -7.3714772597131337e-05 0 4.5809810788597915e-08 -8.6159864715605421e-05 0 -8.6314531261718662e-06 -9.0314221095662045e-05 0 -1.0525397641945303e-05 -7.5447072309279927e-05 0 -1.6636898384099315e-05 -8.34054341017425e-05 0 -8.6314531261718662e-06 -9.0314221095662045e-05 0 -1.0525397641945303e-05 -7.5447072309279927e-05 0 -1.0525397641945303e-05 -7.5447072309279927e-05 0 -6.1358984366585794e-07 -7.3714772597131337e-05 0 -6.9389887629107507e-06 -6.3853877066625544e-05 0 -6.1358984366585794e-07 -7.3714772597131337e-05 0 8.4490489409752144e-06 -8.1398487430797353e-05 0 6.8843574529934417e-06 -7.1038618857423809e-05 0 4.5809810788597915e-08 -8.6159864715605421e-05 0 -6.1358984366585794e-07 -7.3714772597131337e-05 0 8.4490489409752144e-06 -8.1398487430797353e-05 0 1.4956809346391867e-05 -7.4091684759387057e-05 0 1.7540330529769344e-05 -8.5444041372995257e-05 0 8.4490489409752144e-06 -8.1398487430797353e-05 0 1.4956809346391867e-05 -7.4091684759387057e-05 0 8.4490489409752144e-06 -8.1398487430797353e-05 0 6.8843574529934417e-06 -7.1038618857423809e-05 0 1.4956809346391867e-05 -7.4091684759387057e-05 0 6.8843574529934417e-06 -7.1038618857423809e-05 0 1.1301672235519741e-05 -6.2877877145242535e-05 0 6.8843574529934417e-06 -7.1038618857423809e-05 0 1.1301672235519741e-05 -6.2877877145242535e-05 0 5.3281891115278547e-07 -6.3339968818605376e-05 0 1.1301672235519741e-05 -6.2877877145242535e-05 0 5.2000792317400545e-06 -5.5648355691856787e-05 0 5.3281891115278547e-07 -6.3339968818605376e-05 0 1.1301672235519741e-05 -6.2877877145242535e-05 0 5.2000792317400545e-06 -5.5648355691856787e-05 0 1.1628514148138789e-05 -5.192901115310147e-05 0 5.2000792317400545e-06 -5.5648355691856787e-05 0 5.3281891115278547e-07 -6.3339968818605376e-05 0 -1.8360827749021435e-06 -5.4066327030032117e-05 0 -6.1358984366585794e-07 -7.3714772597131337e-05 0 6.8843574529934417e-06 -7.1038618857423809e-05 0 5.3281891115278547e-07 -6.3339968818605376e-05 0 -6.1358984366585794e-07 -7.3714772597131337e-05 0 5.3281891115278547e-07 -6.3339968818605376e-05 0 -6.9389887629107507e-06 -6.3853877066625544e-05 0 -1.0525397641945303e-05 -7.5447072309279927e-05 0 -6.9389887629107507e-06 -6.3853877066625544e-05 0 -1.8952412447851613e-05 -6.3897552839997375e-05 0 -6.9389887629107507e-06 -6.3853877066625544e-05 0 -1.0409052928448579e-05 -5.3600061927924548e-05 0 -1.8952412447851613e-05 -6.3897552839997375e-05 0 5.3281891115278547e-07 -6.3339968818605376e-05 0 -6.9389887629107507e-06 -6.3853877066625544e-05 0 -1.8360827749021435e-06 -5.4066327030032117e-05 0 -6.9389887629107507e-06 -6.3853877066625544e-05 0 -1.0409052928448579e-05 -5.3600061927924548e-05 0 -1.8360827749021435e-06 -5.4066327030032117e-05 0 -1.0409052928448579e-05 -5.3600061927924548e-05 0 -2.7089413456222528e-06 -4.3391945280786736e-05 0 -1.8360827749021435e-06 -5.4066327030032117e-05 0 -1.0409052928448579e-05 -5.3600061927924548e-05 0 -1.5913635961716128e-05 -4.6753525574789233e-05 0 -9.6296244119565617e-06 -4.0031199573213577e-05 0 -1.0409052928448579e-05 -5.3600061927924548e-05 0 -2.7089413456222528e-06 -4.3391945280786736e-05 0 -9.6296244119565617e-06 -4.0031199573213577e-05 0 -2.7089413456222528e-06 -4.3391945280786736e-05 0 4.5072682882989613e-06 -4.6354766276275536e-05 0 4.0515267545220937e-06 -3.4151219656515577e-05 0 4.5072682882989613e-06 -4.6354766276275536e-05 0 4.0515267545220937e-06 -3.4151219656515577e-05 0 1.0683741653139782e-05 -4.0175634931339487e-05 0 5.2000792317400545e-06 -5.5648355691856787e-05 0 4.5072682882989613e-06 -4.6354766276275536e-05 0 1.1628514148138789e-05 -5.192901115310147e-05 0 -2.7089413456222528e-06 -4.3391945280786736e-05 0 4.5072682882989613e-06 -4.6354766276275536e-05 0 -1.8360827749021435e-06 -5.4066327030032117e-05 0 5.2000792317400545e-06 -5.5648355691856787e-05 0 4.5072682882989613e-06 -4.6354766276275536e-05 0 -1.8360827749021435e-06 -5.4066327030032117e-05 0 -4.0927589445217675e-05 -5.8972806237854125e-05 0 -3.5673083391281011e-05 -6.5028427397349528e-05 0 -2.8382419877888677e-05 -5.842843124845994e-05 0 -4.0927589445217675e-05 -5.8972806237854125e-05 0 -2.8382419877888677e-05 -5.842843124845994e-05 0 -3.1442371399665011e-05 -5.0064686184460368e-05 0 -3.0420941272388036e-05 -7.1255384747502786e-05 0 -4.3104748372838132e-05 -7.1147220757260943e-05 0 -3.5673083391281011e-05 -6.5028427397349528e-05 0 -4.0927589445217675e-05 -5.8972806237854125e-05 0 -4.3104748372838132e-05 -7.1147220757260943e-05 0 -3.5673083391281011e-05 -6.5028427397349528e-05 0 -3.0420941272388036e-05 -7.1255384747502786e-05 0 -3.5673083391281011e-05 -6.5028427397349528e-05 0 -2.8382419877888677e-05 -5.842843124845994e-05 0 -2.8382419877888677e-05 -5.842843124845994e-05 0 -1.8952412447851613e-05 -6.3897552839997375e-05 0 -1.9009318247179973e-05 -5.3841855618899206e-05 0 -3.0420941272388036e-05 -7.1255384747502786e-05 0 -2.8382419877888677e-05 -5.842843124845994e-05 0 -1.8952412447851613e-05 -6.3897552839997375e-05 0 -2.0665919829321787e-05 -7.5107521253536846e-05 0 -3.0420941272388036e-05 -7.1255384747502786e-05 0 -1.8952412447851613e-05 -6.3897552839997375e-05 0 -1.0409052928448579e-05 -5.3600061927924548e-05 0 -1.8952412447851613e-05 -6.3897552839997375e-05 0 -1.9009318247179973e-05 -5.3841855618899206e-05 0 -1.9009318247179973e-05 -5.3841855618899206e-05 0 -1.5913635961716128e-05 -4.6753525574789233e-05 0 -2.3595719801361466e-05 -4.7382939208854611e-05 0 -1.0409052928448579e-05 -5.3600061927924548e-05 0 -1.9009318247179973e-05 -5.3841855618899206e-05 0 -1.5913635961716128e-05 -4.6753525574789233e-05 0 -1.5913635961716128e-05 -4.6753525574789233e-05 0 -1.7162944305281935e-05 -3.963777987135471e-05 0 -9.6296244119565617e-06 -4.0031199573213577e-05 0 -1.5913635961716128e-05 -4.6753525574789233e-05 0 -2.3595719801361466e-05 -4.7382939208854611e-05 0 -1.7162944305281935e-05 -3.963777987135471e-05 0 -2.3595719801361466e-05 -4.7382939208854611e-05 0 -2.7389477294511858e-05 -4.0344977777367914e-05 0 -1.7162944305281935e-05 -3.963777987135471e-05 0 -2.8382419877888677e-05 -5.842843124845994e-05 0 -1.9009318247179973e-05 -5.3841855618899206e-05 0 -2.3595719801361466e-05 -4.7382939208854611e-05 0 -2.8382419877888677e-05 -5.842843124845994e-05 0 -2.3595719801361466e-05 -4.7382939208854611e-05 0 -3.1442371399665011e-05 -5.0064686184460368e-05 0 -2.3595719801361466e-05 -4.7382939208854611e-05 0 -3.1442371399665011e-05 -5.0064686184460368e-05 0 -2.7389477294511858e-05 -4.0344977777367914e-05 0 -3.1442371399665011e-05 -5.0064686184460368e-05 0 -3.8337147843231048e-05 -4.7660856365626159e-05 0 -2.7389477294511858e-05 -4.0344977777367914e-05 0 -4.0927589445217675e-05 -5.8972806237854125e-05 0 -3.1442371399665011e-05 -5.0064686184460368e-05 0 -3.8337147843231048e-05 -4.7660856365626159e-05 0 -3.5335450522854313e-05 -3.7391455857489562e-05 0 -2.7092191088267186e-05 -3.1684028680056238e-05 0 -3.1701590033764103e-05 -2.8273466603686673e-05 0 -3.8337147843231048e-05 -4.7660856365626159e-05 0 -3.5335450522854313e-05 -3.7391455857489562e-05 0 -2.7389477294511858e-05 -4.0344977777367914e-05 0 -3.5335450522854313e-05 -3.7391455857489562e-05 0 -2.7389477294511858e-05 -4.0344977777367914e-05 0 -2.7092191088267186e-05 -3.1684028680056238e-05 0 -2.7389477294511858e-05 -4.0344977777367914e-05 0 -2.7092191088267186e-05 -3.1684028680056238e-05 0 -2.0351650992620923e-05 -3.143245080900948e-05 0 -2.7389477294511858e-05 -4.0344977777367914e-05 0 -2.0351650992620923e-05 -3.143245080900948e-05 0 -1.7162944305281935e-05 -3.963777987135471e-05 0 -1.7162944305281935e-05 -3.963777987135471e-05 0 -1.4495947912654397e-05 -3.2590007293772457e-05 0 -9.6296244119565617e-06 -4.0031199573213577e-05 0 -2.0351650992620923e-05 -3.143245080900948e-05 0 -1.7162944305281935e-05 -3.963777987135471e-05 0 -1.4495947912654397e-05 -3.2590007293772457e-05 0 -1.4495947912654397e-05 -3.2590007293772457e-05 0 -1.5285734618659893e-05 -2.6293092993150707e-05 0 -9.0239488194236523e-06 -2.769770575997913e-05 0 -2.0351650992620923e-05 -3.143245080900948e-05 0 -1.4495947912654397e-05 -3.2590007293772457e-05 0 -1.5285734618659893e-05 -2.6293092993150707e-05 0 -1.5285734618659893e-05 -2.6293092993150707e-05 0 -1.2263461537322477e-05 -1.9647424218383549e-05 0 -2.104543716598576e-05 -2.2675675187749415e-05 0 -1.4612465124724319e-05 -1.5693923068828175e-05 0 -1.2263461537322477e-05 -1.9647424218383549e-05 0 -2.104543716598576e-05 -2.2675675187749415e-05 0 -2.0351650992620923e-05 -3.143245080900948e-05 0 -1.5285734618659893e-05 -2.6293092993150707e-05 0 -2.104543716598576e-05 -2.2675675187749415e-05 0 -2.7092191088267186e-05 -3.1684028680056238e-05 0 -2.104543716598576e-05 -2.2675675187749415e-05 0 -3.1701590033764103e-05 -2.8273466603686673e-05 0 -2.7092191088267186e-05 -3.1684028680056238e-05 0 -2.0351650992620923e-05 -3.143245080900948e-05 0 -2.104543716598576e-05 -2.2675675187749415e-05 0 -2.811078740985165e-05 -2.0554848155162663e-05 0 -2.104543716598576e-05 -2.2675675187749415e-05 0 -3.1701590033764103e-05 -2.8273466603686673e-05 0 4.0515267545220937e-06 -3.4151219656515577e-05 0 -3.8855048350682651e-06 -3.3759663971571849e-05 0 -1.7415467555516595e-06 -2.5351311033215607e-05 0 4.0515267545220937e-06 -3.4151219656515577e-05 0 -1.7415467555516595e-06 -2.5351311033215607e-05 0 4.5600732841712868e-06 -2.2648913106624512e-05 0 -2.7089413456222528e-06 -4.3391945280786736e-05 0 4.0515267545220937e-06 -3.4151219656515577e-05 0 -3.8855048350682651e-06 -3.3759663971571849e-05 0 -2.7089413456222528e-06 -4.3391945280786736e-05 0 -3.8855048350682651e-06 -3.3759663971571849e-05 0 -9.6296244119565617e-06 -4.0031199573213577e-05 0 -1.4495947912654397e-05 -3.2590007293772457e-05 0 -9.6296244119565617e-06 -4.0031199573213577e-05 0 -9.0239488194236523e-06 -2.769770575997913e-05 0 -3.8855048350682651e-06 -3.3759663971571849e-05 0 -9.6296244119565617e-06 -4.0031199573213577e-05 0 -9.0239488194236523e-06 -2.769770575997913e-05 0 -3.8855048350682651e-06 -3.3759663971571849e-05 0 -9.0239488194236523e-06 -2.769770575997913e-05 0 -1.7415467555516595e-06 -2.5351311033215607e-05 0 -9.0239488194236523e-06 -2.769770575997913e-05 0 -6.2370586946753252e-06 -1.9807112296486626e-05 0 -1.7415467555516595e-06 -2.5351311033215607e-05 0 -1.5285734618659893e-05 -2.6293092993150707e-05 0 -1.2263461537322477e-05 -1.9647424218383549e-05 0 -9.0239488194236523e-06 -2.769770575997913e-05 0 -8.9992183883312309e-06 -1.5672139420781837e-05 0 -1.2263461537322477e-05 -1.9647424218383549e-05 0 -6.2370586946753252e-06 -1.9807112296486626e-05 0 -1.2263461537322477e-05 -1.9647424218383549e-05 0 -9.0239488194236523e-06 -2.769770575997913e-05 0 -6.2370586946753252e-06 -1.9807112296486626e-05 0 -6.2370586946753252e-06 -1.9807112296486626e-05 0 -1.5575179678130855e-06 -1.7503329752235339e-05 0 -1.7415467555516595e-06 -2.5351311033215607e-05 0 -1.5575179678130855e-06 -1.7503329752235339e-05 0 -1.7415467555516595e-06 -2.5351311033215607e-05 0 4.5600732841712868e-06 -2.2648913106624512e-05 0 3.1847446827021063e-06 -1.4649587082597516e-05 0 -1.5575179678130855e-06 -1.7503329752235339e-05 0 4.5600732841712868e-06 -2.2648913106624512e-05 0 3.1847446827021063e-06 -1.4649587082597516e-05 0 7.4445662158716246e-06 -1.2556693167966132e-05 0 4.5600732841712868e-06 -2.2648913106624512e-05 0 7.4445662158716246e-06 -1.2556693167966132e-05 0 5.9833365539001164e-06 -1.0582872074918721e-05 0 6.0908378571942227e-06 -1.0093838232008083e-05 0 7.4445662158716246e-06 -1.2556693167966132e-05 0 1.2407465774009212e-05 -2.4656666234100517e-05 0 4.5600732841712868e-06 -2.2648913106624512e-05 0 6.5881849871673023e-06 -1.2253405847836372e-05 0 9.5344788433393057e-06 -1.7850293613073948e-05 0 1.2407465774009212e-05 -2.4656666234100517e-05 0 4.5600732841712868e-06 -2.2648913106624512e-05 0 9.5378944527578289e-06 -3.0293060643102512e-05 0 4.0515267545220937e-06 -3.4151219656515577e-05 0 4.5600732841712868e-06 -2.2648913106624512e-05 0 9.5378944527578289e-06 -3.0293060643102512e-05 0 9.5344788433393057e-06 -1.7850293613073948e-05 0 1.0694890035671389e-05 -2.3735695504528426e-05 0 1.2407465774009212e-05 -2.4656666234100517e-05 0 9.5378944527578289e-06 -3.0293060643102512e-05 0 1.586451065183096e-05 -3.4515621473725147e-05 0 1.0694890035671389e-05 -2.3735695504528426e-05 0 1.2224444091280895e-05 -3.0687424371850878e-05 0 9.5378944527578289e-06 -3.0293060643102512e-05 0 1.586451065183096e-05 -3.4515621473725147e-05 0 1.0683741653139782e-05 -4.0175634931339487e-05 0 4.0515267545220937e-06 -3.4151219656515577e-05 0 9.5378944527578289e-06 -3.0293060643102512e-05 0 1.0683741653139782e-05 -4.0175634931339487e-05 0 7.1361789669181885e-06 -1.3697699016598702e-05 0 6.8393759363838822e-06 -1.0757635388691367e-05 0 8.2736977449745524e-06 -1.2799442759085431e-05 0 5.6694295154504478e-06 -1.3058106994139254e-05 0 7.1361789669181885e-06 -1.3697699016598702e-05 0 5.8844306406571384e-06 -1.6369177281989279e-05 0 5.6694295154504478e-06 -1.3058106994139254e-05 0 7.1361789669181885e-06 -1.3697699016598702e-05 0 6.8393759363838822e-06 -1.0757635388691367e-05 0 5.9833365539001164e-06 -1.0582872074918721e-05 0 5.6694295154504478e-06 -1.3058106994139254e-05 0 6.8393759363838822e-06 -1.0757635388691367e-05 0 6.8393759363838822e-06 -1.0757635388691367e-05 0 6.0908378571942227e-06 -1.0093838232008083e-05 0 7.1070286566143637e-06 -8.695322517657848e-06 0 5.9833365539001164e-06 -1.0582872074918721e-05 0 6.8393759363838822e-06 -1.0757635388691367e-05 0 6.0908378571942227e-06 -1.0093838232008083e-05 0 6.2616549128084307e-06 -9.0791916763927693e-06 0 7.4445662158716246e-06 -1.2556693167966132e-05 0 6.0908378571942227e-06 -1.0093838232008083e-05 0 6.2616549128084307e-06 -9.0791916763927693e-06 0 6.0908378571942227e-06 -1.0093838232008083e-05 0 7.1070286566143637e-06 -8.695322517657848e-06 0 6.8393759363838822e-06 -1.0757635388691367e-05 0 7.1070286566143637e-06 -8.695322517657848e-06 0 8.6088077647844798e-06 -1.0910058489797411e-05 0 7.1070286566143637e-06 -8.695322517657848e-06 0 9.1206953511976174e-06 -8.3245878222179458e-06 0 8.6088077647844798e-06 -1.0910058489797411e-05 0 8.0750411757131261e-06 -6.0039493920083058e-06 0 7.1070286566143637e-06 -8.695322517657848e-06 0 9.1206953511976174e-06 -8.3245878222179458e-06 0 9.4846707974187213e-06 -4.6115376186192282e-06 0 1.0602105825613071e-05 -7.0899198203980504e-06 0 9.1206953511976174e-06 -8.3245878222179458e-06 0 9.4846707974187213e-06 -4.6115376186192282e-06 0 8.0750411757131261e-06 -6.0039493920083058e-06 0 9.1206953511976174e-06 -8.3245878222179458e-06 0 1.0602105825613071e-05 -7.0899198203980504e-06 0 1.1358403997232253e-05 -1.055580819473197e-05 0 9.1206953511976174e-06 -8.3245878222179458e-06 0 1.1358403997232253e-05 -1.055580819473197e-05 0 1.0203274805143266e-05 -1.0958429589872843e-05 0 1.202491901067778e-05 -1.3561547266166447e-05 0 1.1358403997232253e-05 -1.055580819473197e-05 0 9.1206953511976174e-06 -8.3245878222179458e-06 0 1.0203274805143266e-05 -1.0958429589872843e-05 0 1.0203274805143266e-05 -1.0958429589872843e-05 0 1.0552617654829329e-05 -1.3150480037637078e-05 0 8.6088077647844798e-06 -1.0910058489797411e-05 0 9.1206953511976174e-06 -8.3245878222179458e-06 0 1.0203274805143266e-05 -1.0958429589872843e-05 0 8.6088077647844798e-06 -1.0910058489797411e-05 0 1.0203274805143266e-05 -1.0958429589872843e-05 0 1.0552617654829329e-05 -1.3150480037637078e-05 0 1.202491901067778e-05 -1.3561547266166447e-05 0 6.8393759363838822e-06 -1.0757635388691367e-05 0 8.6088077647844798e-06 -1.0910058489797411e-05 0 8.2736977449745524e-06 -1.2799442759085431e-05 0 1.0552617654829329e-05 -1.3150480037637078e-05 0 8.6088077647844798e-06 -1.0910058489797411e-05 0 1.0045919578698143e-05 -1.4768308609430299e-05 0 8.6088077647844798e-06 -1.0910058489797411e-05 0 8.2736977449745524e-06 -1.2799442759085431e-05 0 1.0045919578698143e-05 -1.4768308609430299e-05 0 8.2736977449745524e-06 -1.2799442759085431e-05 0 1.0045919578698143e-05 -1.4768308609430299e-05 0 8.4672854304323655e-06 -1.5879769036107556e-05 0 1.0045919578698143e-05 -1.4768308609430299e-05 0 1.2206113541444006e-05 -1.5870546739633255e-05 0 1.217110089876965e-05 -1.8035886608761061e-05 0 1.0045919578698143e-05 -1.4768308609430299e-05 0 1.0233104765737359e-05 -1.751145284837508e-05 0 1.217110089876965e-05 -1.8035886608761061e-05 0 1.0045919578698143e-05 -1.4768308609430299e-05 0 1.0233104765737359e-05 -1.751145284837508e-05 0 8.4672854304323655e-06 -1.5879769036107556e-05 0 1.202491901067778e-05 -1.3561547266166447e-05 0 1.3958433964198539e-05 -1.6413297329946485e-05 0 1.2206113541444006e-05 -1.5870546739633255e-05 0 1.0552617654829329e-05 -1.3150480037637078e-05 0 1.202491901067778e-05 -1.3561547266166447e-05 0 1.2206113541444006e-05 -1.5870546739633255e-05 0 1.0552617654829329e-05 -1.3150480037637078e-05 0 1.0045919578698143e-05 -1.4768308609430299e-05 0 1.2206113541444006e-05 -1.5870546739633255e-05 0 1.2206113541444006e-05 -1.5870546739633255e-05 0 1.4645483797021109e-05 -1.8869332121824032e-05 0 1.217110089876965e-05 -1.8035886608761061e-05 0 1.3958433964198539e-05 -1.6413297329946485e-05 0 1.2206113541444006e-05 -1.5870546739633255e-05 0 1.4645483797021109e-05 -1.8869332121824032e-05 0 1.7402127793671773e-05 -2.0635151695124108e-05 0 1.4645483797021109e-05 -1.8869332121824032e-05 0 1.6519339243200177e-05 -2.1547064400110382e-05 0 1.4645483797021109e-05 -1.8869332121824032e-05 0 1.4356818454455864e-05 -2.0957204283323828e-05 0 1.217110089876965e-05 -1.8035886608761061e-05 0 1.4645483797021109e-05 -1.8869332121824032e-05 0 1.4356818454455864e-05 -2.0957204283323828e-05 0 1.6519339243200177e-05 -2.1547064400110382e-05 0 1.0233104765737359e-05 -1.751145284837508e-05 0 1.2110459440209817e-05 -2.0336455494789716e-05 0 1.0257558523953253e-05 -1.9802517291890896e-05 0 1.4356818454455864e-05 -2.0957204283323828e-05 0 1.217110089876965e-05 -1.8035886608761061e-05 0 1.2110459440209817e-05 -2.0336455494789716e-05 0 1.0233104765737359e-05 -1.751145284837508e-05 0 1.217110089876965e-05 -1.8035886608761061e-05 0 1.2110459440209817e-05 -2.0336455494789716e-05 0 1.3533052824500619e-05 -2.3024002607540098e-05 0 1.4356818454455864e-05 -2.0957204283323828e-05 0 1.2110459440209817e-05 -2.0336455494789716e-05 0 1.2110459440209817e-05 -2.0336455494789716e-05 0 1.140822184924362e-05 -2.1752212494088011e-05 0 1.0257558523953253e-05 -1.9802517291890896e-05 0 1.3533052824500619e-05 -2.3024002607540098e-05 0 1.2110459440209817e-05 -2.0336455494789716e-05 0 1.140822184924362e-05 -2.1752212494088011e-05 0 1.140822184924362e-05 -2.1752212494088011e-05 0 1.0257558523953253e-05 -1.9802517291890896e-05 0 9.3920719190001361e-06 -2.1225729116258899e-05 0 1.0257558523953253e-05 -1.9802517291890896e-05 0 8.3241267753339663e-06 -1.8414761731864258e-05 0 9.3920719190001361e-06 -2.1225729116258899e-05 0 1.0233104765737359e-05 -1.751145284837508e-05 0 1.0257558523953253e-05 -1.9802517291890896e-05 0 8.3241267753339663e-06 -1.8414761731864258e-05 0 8.3241267753339663e-06 -1.8414761731864258e-05 0 9.3920719190001361e-06 -2.1225729116258899e-05 0 6.742834044601935e-06 -1.9999829841368747e-05 0 1.1301672235519741e-05 -6.2877877145242535e-05 0 2.325254685113088e-05 -6.7932585394798309e-05 0 2.0980021782056677e-05 -5.6117418171788055e-05 0 1.5643249149859414e-05 -4.5684943584606776e-05 0 1.3817603560936198e-05 -3.8064823706374857e-05 0 9.3920719190001361e-06 -2.1225729116258899e-05 0 8.1769641904869132e-06 -2.3419571459873621e-05 0 6.742834044601935e-06 -1.9999829841368747e-05 0 1.4956809346391867e-05 -7.4091684759387057e-05 0 1.1301672235519741e-05 -6.2877877145242535e-05 0 2.325254685113088e-05 -6.7932585394798309e-05 0 1.1301672235519741e-05 -6.2877877145242535e-05 0 2.0980021782056677e-05 -5.6117418171788055e-05 0 1.1628514148138789e-05 -5.192901115310147e-05 0 2.0980021782056677e-05 -5.6117418171788055e-05 0 1.1628514148138789e-05 -5.192901115310147e-05 0 1.8557177774015895e-05 -4.4984997379906612e-05 0 8.3241267753339663e-06 -1.8414761731864258e-05 0 6.742834044601935e-06 -1.9999829841368747e-05 0 5.8844306406571384e-06 -1.6369177281989279e-05 0 1.3817603560936198e-05 -3.8064823706374857e-05 0 1.2224444091280895e-05 -3.0687424371850878e-05 0 1.1628514148138789e-05 -5.192901115310147e-05 0 1.0683741653139782e-05 -4.0175634931339487e-05 0 1.8557177774015895e-05 -4.4984997379906612e-05 0 4.5072682882989613e-06 -4.6354766276275536e-05 0 1.1628514148138789e-05 -5.192901115310147e-05 0 1.0683741653139782e-05 -4.0175634931339487e-05 0 1.586451065183096e-05 -3.4515621473725147e-05 0 1.0683741653139782e-05 -4.0175634931339487e-05 0 1.8557177774015895e-05 -4.4984997379906612e-05 0 7.1361789669181885e-06 -1.3697699016598702e-05 0 5.8844306406571384e-06 -1.6369177281989279e-05 0 8.4672854304323655e-06 -1.5879769036107556e-05 0 7.1361789669181885e-06 -1.3697699016598702e-05 0 8.2736977449745524e-06 -1.2799442759085431e-05 0 8.4672854304323655e-06 -1.5879769036107556e-05 0 1.0233104765737359e-05 -1.751145284837508e-05 0 8.3241267753339663e-06 -1.8414761731864258e-05 0 8.4672854304323655e-06 -1.5879769036107556e-05 0 8.3241267753339663e-06 -1.8414761731864258e-05 0 5.8844306406571384e-06 -1.6369177281989279e-05 0 8.4672854304323655e-06 -1.5879769036107556e-05 0 
</DataArray>
</PointData>
<CellData Scalars="region_id,von_mises_stress,cross_section_updated,displacement_divergence," Vectors="" Tensors="stress,">
<DataArray type="Float64" Name="region_id" format="ascii">
1 1 1 1 1 1 1 1 1 1 1 1 1 1 1 1 1 1 1 1 1 1 1 1 1 1 1 1 1 1 1 1 1 1 1 1 1 1 1 1 1 1 1 1 1 1 1 1 1 1 1 1 1 1 1 1 1 1 1 1 1 1 1 1 1 1 1 1 1 1 1 1 1 1 1 1 1 1 1 1 1 1 1 1 1 1 1 1 1 1 1 1 1 1 1 1 1 1 1 1 1 1 1 1 1 1 1 1 1 1 1 1 1 1 1 1 1 1 1 1 1 1 1 1 1 1 1 1 1 1 1 1 1 1 1 1 1 1 1 1 1 1 1 1 1 1 1 1 1 1 1 1 1 1 1 1 1 1 1 1 1 1 1 1 1 1 1 1 1 1 1 1 1 1 1 1 1 1 1 1 1 1 1 1 1 1 1 1 1 1 1 1 1 1 1 1 1 1 1 1 1 1 1 1 1 1 1 1 1 1 1 1 1 1 1 1 1 1 1 1 1 1 1 1 1 1 1 1 1 1 1 1 1 1 1 1 1 1 1 1 1 1 1 1 1 1 1 1 1 1 1 1 1 1 1 1 1 1 1 1 1 1 1 1 1 1 1 1 1 1 1 1 1 1 1 1 1 1 1 1 1 1 1 1 1 1 1 1 1 1 1 1 1 1 1 1 1 1 1 1 1 1 1 1 1 1 1 1 1 1 1 1 1 1 1 1 1 1 1 1 1 1 1 1 1 1 1 1 1 1 1 1 1 1 1 1 1 1 1 1 1 1 1 1 1 1 1 1 1 1 1 1 1 1 1 1 1 1 1 1 1 1 1 1 1 1 1 1 1 1 1 1 1 1 1 1 1 1 1 1 1 1 1 1 1 1 1 1 1 1 1 1 1 1 1 1 1 1 1 1 1 1 1 1 1 1 1 1 1 1 1 1 1 1 1 1 1 1 1 1 1 1 1 1 1 1 1 1 1 1 1 1 1 1 1 1 1 1 1 1 1 1 1 1 1 1 1 1 1 1 1 1 1 1 1 1 1 1 1 1 1 1 1 1 1 1 1 1 1 1 1 1 1 1 1 1 1 1 1 1 1 1 1 1 1 1 1 1 1 1 1 1 1 1 1 1 1 1 1 1 1 1 1 1 1 1 1 1 1 1 1 1 1 1 1 1 1 1 1 1 1 1 1 1 1 1 1 1 1 1 1 1 1 1 1 1 1 1 3 1 1 3 1 1 3 1 1 1 1 1 1 1 1 1 1 1 1 1 3 1 1 1 1 1 3 1 1 1 1 1 1 1 1 1 1 1 1 1 1 1 1 1 1 1 1 1 1 1 1 1 1 1 1 1 1 1 1 1 1 1 1 1 1 1 1 1 1 1 1 1 1 1 1 1 1 1 1 1 1 1 1 1 1 1 1 1 1 1 1 1 1 1 1 1 1 1 1 1 1 1 1 1 1 1 1 1 1 1 1 1 1 1 1 1 1 1 1 1 1 1 1 1 1 1 1 1 1 1 1 1 1 1 1 1 1 1 1 1 1 1 1 1 1 1 1 1 1 1 1 1 1 1 1 1 1 1 1 1 1 1 1 1 1 1 1 1 1 1 1 1 1 1 1 1 1 1 1 1 1 1 1 1 1 1 1 1 1 1 1 1 1 1 1 3 1 1 1 3 1 1 3 1 1 1 1 1 1 1 1 1 1 1 3 1 1 1 1 3 1 1 1 1 1 1 1 1 1 1 1 1 1 1 1 1 1 1 1 1 1 1 1 1 1 1 1 1 1 1 1 1 1 1 1 1 1 1 1 1 1 1 1 1 1 1 1 1 1 1 1 1 1 1 1 1 1 1 2 1 1 1 1 1 1 1 1 1 1 1 1 1 1 2 1 1 2 1 2 1 1 1 1 1 1 1 1 1 1 1 1 1 2 1 1 1 1 1 1 1 1 1 1 1 1 1 1 1 1 1 1 1 1 1 1 1 1 1 1 1 1 1 1 1 1 1 1 1 1 1 1 1 1 1 1 1 1 1 1 1 1 1 1 1 1 1 1 1 1 1 1 1 1 1 1 1 1 1 1 1 1 1 1 1 1 1 1 1 1 1 1 1 1 1 1 1 1 1 1 1 1 1 1 1 1 1 1 1 1 1 1 1 1 1 1 1 1 1 1 1 1 1 1 1 1 1 1 1 1 1 1 1 1 1 1 1 1 1 1 1 1 1 1 1 1 1 1 1 1 2 1 1 2 1 2 1 1 1 1 1 1 1 1 1 1 1 1 1 1 1 1 1 1 1 1 1 1 1 1 1 1 1 1 1 1 1 1 1 1 1 1 1 1 1 1 1 1 1 1 1 1 1 2 1 1 1 1 1 2 1 1 1 1 1 1 1 
</DataArray>
<DataArray type="Float64" Name="stress" NumberOfComponents="9" format="ascii">
-0.031141388138766872 0.0010400023238020702 0 0.0010400023238020702 -0.0039602893828750265 0 0 0 -0.0087754193804104753 -0.028978565158606372 0.0017281387032467357 0 0.0017281387032467357 -0.0096412036076252167 0 0 0 -0.0096549421915578977 -0.031002826285529195 0.0025040206867667832 0 0.0025040206867667832 0.0016232003818380195 0 0 0 -0.0073449064759227934 -0.0291295189888191 0.0029728328651626632 0 0.0029728328651626632 -0.0043855572510102647 0 0 0 -0.0083787690599573424 -0.023367768531588212 0.0066572149007699619 0 0.0066572149007699619 -0.0077927559462471364 0 0 0 -0.0077901311194588365 -0.02336340618870256 0.0066609170288655477 0 0.0066609170288655477 -0.0077786863366118295 0 0 0 -0.0077855231313285972 -0.026859024780756437 0.0064184313419473234 0 0.0064184313419473234 -0.0019745433458022042 0 0 0 -0.0072083920316396623 -0.028287195057984202 0.0058550396070258318 0 0.0058550396070258318 -0.0026651071101967197 0 0 0 -0.0077380755420452287 -0.025867521695884136 0.0076557419513254722 0 0.0076557419513254722 -0.0020834506730200882 0 0 0 -0.0069877430922260578 -0.020251954988606817 0.0078946387590445727 0 0.0078946387590445727 -0.00054850296931181763 0 0 0 -0.0052001144894796561 -0.029752548368025197 0.0081546320120759949 0 0.0081546320120759949 -0.0011781009998554082 0 0 0 -0.0077326623419701514 -0.019930559722771267 0.0089969048795911066 0 0.0089969048795911066 0.0004628806623451498 0 0 0 -0.0048669197651065293 -0.036886338186474965 0.0064163393238863753 0 0.0064163393238863753 -0.00056577697165532091 0 0 0 -0.0093630287895325702 -0.028699590161878223 0.0067982713717380586 0 0.0067982713717380586 0.00042111180176337623 0 0 0 -0.0070696195900287091 -0.044172750394964655 0.0024571837727170097 0 0.0024571837727170097 -0.0014484874050257261 0 0 0 -0.011405309449997592 -0.036111886493609177 0.0031459069624975673 0 0.0031459069624975673 -0.00017052435263420138 0 0 0 -0.0090706027115608455 -0.032890219700856843 0.0044691427247713911 0 0.0044691427247713911 0.0019542840107682705 0 0 0 -0.0077339839225221453 -0.033347866734506307 0.0065273109883925585 0 0.0065273109883925585 -0.00065715051785790284 0 0 0 -0.0085012543130910528 -0.0031826679823756879 0.009318134972438415 0 0.009318134972438415 -0.0010587522498429194 0 0 0 -0.0010603550580546518 -0.0072137178298250053 0.011478473201517065 0 0.011478473201517065 -0.0014918197590212054 0 0 0 -0.0021763843972115509 -0.0083127921388546078 0.0085341766706517712 0 0.0085341766706517712 -0.0008113470020832932 0 0 0 -0.002281034785234475 -0.015845154581126123 0.0101884388349112 0 0.0101884388349112 -0.0012019759273041823 0 0 0 -0.0042617826271075746 -0.016757904597016145 0.0093084100441097328 0 0.0093084100441097328 -0.0034251758492791322 0 0 0 -0.0050457701115738203 -0.010229498641357715 0.010244430117563371 0 0.010244430117563371 -0.0019355595245831754 0 0 0 -0.0030412645414852248 -0.010436354221531436 0.0089680889942708019 0 0.0089680889942708019 -0.0034829212306988532 0 0 0 -0.003479818863057572 -0.017624804817840577 0.010232184173423845 0 0.010232184173423845 -0.00072009551303209296 0 0 0 -0.004586225082718165 -0.018702248661410088 0.0078963078033918652 0 0.0078963078033918652 -0.00080503771666586531 0 0 0 -0.0048768215945189904 -0.015607344869878864 0.0086572541233036933 0 0.0086572541233036933 -0.001808857007311461 0 0 0 -0.0043540504692975764 -0.0065034865012811608 0.0083841259447148021 0 0.0083841259447148021 -0.00037821487931320556 0 0 0 -0.0017204253451485905 -0.0069975918284228243 0.0094015021533919042 0 0.0094015021533919042 -0.0014098327872237686 0 0 0 -0.0021018561539116448 -0.0028774705496874553 0.010967223146711252 0 0.010967223146711252 -0.0013052553209237025 0 0 0 -0.0010456814676527895 0.0004263833543237238 0.0079880861474622995 0 0.0079880861474622995 0.00017967478254313912 0 0 0 0.0001515145342167179 -0.00022015722469944168 0.009752843371548265 0 0.009752843371548265 -0.001066908280326094 0 0 0 -0.0003217663762563848 -0.00027705214989088775 0.0072913268129144526 0 0.0072913268129144526 -5.2261050755605942e-05 0 0 0 -8.232830016162776e-05 -0.0077347979897324426 0.010367694640524285 0 0.010367694640524285 -0.00089559343413156411 0 0 0 -0.0021575978559660036 -0.018753385952182514 0.010421096827278296 0 0.010421096827278296 -0.00070133225483250822 0 0 0 -0.0048636795517537522 -0.015069456011225444 0.010312775291293617 0 0.010312775291293617 -0.0008807634622983937 0 0 0 -0.0039875548683809582 -0.0094905904640483277 0.0082592649542357968 0 0.0082592649542357968 0.00035479650464619733 0 0 0 -0.0022839484898505326 -0.018764462434426463 0.0085220507740345272 0 0.0085220507740345272 0.0007697233004426568 0 0 0 -0.0044986847834959497 -0.021024683025255307 0.010559655055357697 0 0.010559655055357697 -0.00038249413326957304 0 0 0 -0.00535179428963122 -0.014642806696356769 0.008295103074189767 0 0.008295103074189767 8.1967340745240681e-05 0 0 0 -0.0036402098389028865 -0.010211962509232184 0.010840319418004672 0 0.010840319418004672 0.00080436180873326608 0 0 0 -0.0023519001751247312 -0.010302893171592328 0.0082294340634128521 0 0.0082294340634128521 0.0013474386819481024 0 0 0 -0.0022388636224110548 -0.001724401485865449 0.0075614608542087939 0 0.0075614608542087939 0.00079620660242765685 0 0 0 -0.00023204872085944895 -0.0094671786337233929 0.010660251362542679 0 0.010660251362542679 -0.00042349665546903559 0 0 0 -0.0024726688222981089 -0.0068350794338426033 0.0069409343505280018 0 0.0069409343505280018 0.0018618694968850027 0 0 0 -0.001243302484239399 0.0060172646507330703 0.0067740553426154353 0 0.0067740553426154353 0.00054627930810119407 0 0 0 0.0016408859897085659 -0.00073619032223050732 0.0088768972035937824 0 0.0088768972035937824 0.00064034939914033029 0 0 0 -2.3960230772545124e-05 -0.043221567855319824 0.0028749188995074145 0 0.0028749188995074145 -0.0016693094755865431 0 0 0 -0.011222719332726595 -0.034408204560345948 0.0076654334283158421 0 0.0076654334283158421 -6.3435043730873664e-05 0 0 0 -0.0086179099010192019 -0.05160372668381738 0.0040486525560314819 0 0.0040486525560314819 -0.00026900990428453415 0 0 0 -0.012968184147025479 -0.035505674386471425 0.0054995590822548603 0 0.0054995590822548603 0.0013076760715384945 0 0 0 -0.008549499578733237 -0.026992358577621084 0.007698263293898948 0 0.007698263293898948 0.00083104509923130621 0 0 0 -0.0065403283695974392 -0.027922177402553379 0.0085756174838757058 0 0.0085756174838757058 -0.00058470755240565622 0 0 0 -0.0071267212387397623 -0.028475461978810967 0.0097551732882100502 0 0.0097551732882100502 -0.00052258765324117266 0 0 0 -0.0072495124080130344 -0.032809344469565141 0.0065164247393048533 0 0.0065164247393048533 0.00080166140691882888 0 0 0 -0.0080019207656615732 -0.022816983691205061 0.0080076879722154413 0 0.0080076879722154413 1.6116594601538192e-05 0 0 0 -0.0057002167741508729 -0.034174597938412113 0.0091717474304613984 0 0.0091717474304613984 -0.00049236357966568785 0 0 0 -0.0086667403795194411 -0.026566814676617534 0.0072341616476688051 0 0.0072341616476688051 -0.00020289673696803319 0 0 0 -0.0066924278533963908 -0.033322113097495089 0.0069905000457198066 0 0.0069905000457198066 0.00081976541538469352 0 0 0 -0.0081255869205276044 -0.046491758859903233 0.0054088299567439449 0 0.0054088299567439449 -0.00040714359835951688 0 0 0 -0.011724725614565692 -0.044411718937718503 0.0054997158928574213 0 0.0054997158928574213 -0.00061494072356213319 0 0 0 -0.011256664915320156 -0.043105112799649667 0.0033899104602780131 0 0.0033899104602780131 0.00052832235094367463 0 0 0 -0.010644197612176498 -0.058446123314322911 0.0039682169917087794 0 0.0039682169917087794 -0.00039764616335610792 0 0 0 -0.014710942369419755 -0.061971571041682827 0.0034181352312669458 0 0.0034181352312669458 -0.00031528568706298138 0 0 0 -0.015571714182186456 -0.045239943035003449 0.004427873123980481 0 0.004427873123980481 0.0013672063240236804 0 0 0 -0.010968184177744932 -0.051777651517615889 0.0029723398841720317 0 0.0029723398841720317 0.00090841663986644672 0 0 0 -0.012717308719437355 -0.071336832788642418 0.0023263472552682296 0 0.0023263472552682296 0.0012892001152877974 0 0 0 -0.017511908168338638 -0.053954007038303921 0.0067783749360966865 0 0.0067783749360966865 0.0018487379404466264 0 0 0 -0.013026317274464322 -0.05274880639426073 0.0015435463087035139 0 0.0015435463087035139 -0.00020911450547846794 0 0 0 -0.013239480224934807 -0.057100466987989727 0.0025781733045515884 0 0.0025781733045515884 0.0024748493547190609 0 0 0 -0.013656404408317661 -0.079534894527267391 -8.151464155398136e-05 0 -8.151464155398136e-05 -0.00046575819524161122 0 0 0 -0.020000163180627258 -0.031849187009580039 0.0033886920202988863 0 0.0033886920202988863 0.0035195281540281245 0 0 0 -0.0070824147138879752 -0.026306994068456008 0.0093376317786705056 0 0.0093376317786705056 0.0025040199989984774 0 0 0 -0.0059507435173643784 -0.040196917426485318 0.0062446833965221424 0 0.0062446833965221424 0.00011275070124523723 0 0 0 -0.010021041681310013 -0.039639573295328197 0.0068608925462650128 0 0.0068608925462650128 0.0017258751744195777 0 0 0 -0.00947842453022716 -0.026297360784585656 0.009904332552934908 0 0.009904332552934908 0.0018202453405257181 0 0 0 -0.0061192788610149786 -0.04663515515208895 0.0092151146522632607 0 0.0092151146522632607 0.0022958281357860211 0 0 0 -0.011084831754075722 -0.038507139465037206 0.0060046338182052454 0 0.0060046338182052454 -0.00023056028651277996 0 0 0 -0.0096844249378875043 -0.034667940947327842 0.0094599411341055838 0 0.0094599411341055838 0.0010896152795326925 0 0 0 -0.0083945814169487983 -0.024379776541374677 0.009972607058004488 0 0.009972607058004488 0.00073105578275508426 0 0 0 -0.0059121801896549067 -0.015449354372229215 0.0094052930905653663 0 0.0094052930905653663 0.0010146289900866655 0 0 0 -0.0036086813455356408 -0.015251717800904459 0.007724950201240215 0 0.007724950201240215 0.0015465531515923159 0 0 0 -0.003426291162328037 -0.013713855087516083 0.0072442285143301532 0 0.0072442285143301532 0.0031988442554796576 0 0 0 -0.0026287527080091095 -0.0062205379218395682 0.0091545604340722651 0 0.0091545604340722651 0.001318997387392204 0 0 0 -0.0012253851336118411 -0.025939065560847789 0.0078615566930138464 0 0.0078615566930138464 0.0016389697050478991 0 0 0 -0.0060750239639499716 0.0013700188305265579 0.0061698756505536414 0 0.0061698756505536414 0.0032382283258273886 0 0 0 0.0011520617890884884 -0.00082884189516672143 0.0093741351050873212 0 0.0093741351050873212 0.0003979532272621461 0 0 0 -0.00010772216697614405 -0.0044334345094666364 0.0059504207311960617 0 0.0059504207311960617 0.00407286672314232 0 0 0 -9.0141946581076722e-05 0.007315739497780244 0.0028097977870793871 0 0.0028097977870793871 0.0056313299693685325 0 0 0 0.0032367673667871941 0.0045252650006746033 0.0078572639270342755 0 0.0078572639270342755 0.0026706739597400844 0 0 0 0.0017989847401036711 -0.0027361702783502695 0.0060041847544427263 0 0.0060041847544427263 0.0067545048507023572 0 0 0 0.0010045836430880237 0.0091014398633622769 0.0039970126803943601 0 0.0039970126803943601 0.0068829432119806647 0 0 0 0.0039960957688357363 0.0087897273570142695 0.0029239136524561813 0 0.0029239136524561813 0.011139357823469476 0 0 0 0.0049822712951209311 -0.014612204786246211 0.0096482123405493177 0 0.0096482123405493177 0.0024431112464356752 0 0 0 -0.0030422733849526304 -0.021236315856077298 0.0054333206677102605 0 0.0054333206677102605 0.0029298597859820016 0 0 0 -0.0045766140175238224 -0.0032320661133236755 0.0067184640100212065 0 0.0067184640100212065 0.0032409505353223483 0 0 0 2.2211054996716662e-06 -0.0094806583798947158 0.0040770615109505526 0 0.0040770615109505526 0.0056610480124287647 0 0 0 -0.00095490259186649645 -0.013492811899477042 0.0090480083121259706 0 0.0090480083121259706 0.0058387127472549344 0 0 0 -0.0019135247880555373 -0.020246783061977247 0.0082783004332935492 0 0.0082783004332935492 0.0073789033671355087 0 0 0 -0.0032169699237104277 -0.011692856978872998 0.0046329210151678096 0 0.0046329210151678096 0.014958545018790181 0 0 0 0.00081642200997928543 -0.018920376702936295 0.00041383377053875667 0 0.00041383377053875667 0.0077364273271933182 0 0 0 -0.0027959873439357477 0.023555143344232265 -0.00054528789932269117 0 -0.00054528789932269117 0.013847394827263465 0 0 0 0.0093506345428739333 -0.0053384680921501892 0.0065909286483060679 0 0.0065909286483060679 0.010474810622884911 0 0 0 0.0012840856326836805 0.0052215204856195033 0.0020119900700870802 0 0.0020119900700870802 0.011388157262220588 0 0 0 0.0041524194369600281 0.0077682184499770213 0.0032211652970186855 0 0.0032211652970186855 0.018900785647238738 0 0 0 0.0066672510243039329 0.018881669900903494 -0.0033048446980672025 0 -0.0033048446980672025 0.020699621826376996 0 0 0 0.0098953229318201191 0.0046034357389142661 0.00047905793596830781 0 0.00047905793596830781 0.02901222084906957 0 0 0 0.0084039141469959555 0.0029815125319950508 -0.0067571667664912127 0 -0.0067571667664912127 0.028081887160580798 0 0 0 0.0077658499231439693 0.010219120030556576 -0.010937078052694144 0 -0.010937078052694144 0.023684687297552603 0 0 0 0.0084759518320273106 0.020291079839916251 -0.0053145887571442035 0 -0.0053145887571442035 0.044551704513278001 0 0 0 0.016210696088298573 -0.01677494212894097 -0.0028482788496043132 0 -0.0028482788496043132 0.017767395752957937 0 0 0 0.00024811340600423837 -0.0011892429333339692 -0.0018701731454449366 0 -0.0018701731454449366 0.013764303173231421 0 0 0 0.003143765059974362 -0.0026937800326915576 -0.0099573568450214422 0 -0.0099573568450214422 0.016944834419701876 0 0 0 0.0035627635967525814 -0.019796180856457096 -0.00028340781151306579 0 -0.00028340781151306579 0.0091734411955120554 0 0 0 -0.0026556849152362672 -0.023936903656293147 -0.0077138912329915987 0 -0.0077138912329915987 0.010247900689633618 0 0 0 -0.0034222507416648909 -0.036380899297325076 -0.0030887675605017206 0 -0.0030887675605017206 0.0070516084673211687 0 0 0 -0.0073323227075009767 -0.042202654936993808 0.0028057912802315482 0 0.0028057912802315482 0.0041457668768895353 0 0 0 -0.0095142220150260665 -0.050813077601267062 -0.0064973010661187602 0 -0.0064973010661187602 0.0057594720912931413 0 0 0 -0.011263401377493501 -0.057587505810761871 0.00091470517951011687 0 0.00091470517951011687 0.0019183160170477831 0 0 0 -0.013917297448428498 -0.082927069272357753 -0.00046983569190335583 0 -0.00046983569190335583 0.0024720193137839075 0 0 0 -0.020113762489643472 -0.060967741435009541 0.0018826035719101686 0 0.0018826035719101686 0.0021807950791018493 0 0 0 -0.014696736588976904 -0.059430476334143695 -0.0013881448169107517 0 -0.0013881448169107517 0.0021524571986600294 0 0 0 -0.014319504783870896 -0.063115376782391291 -0.00062109070275050138 0 -0.00062109070275050138 -0.00012932533650797384 0 0 0 -0.015811175529724796 -0.052410015801219213 0.0059935607294239954 0 0.0059935607294239954 0.0021212519472503799 0 0 0 -0.012572190963492214 -0.083267719084132108 0.0026158671288293162 0 0.0026158671288293162 0.00073431578111876616 0 0 0 -0.020633350825753349 -0.060803649352965401 0.0057665292181710362 0 0.0057665292181710362 0.0018529001976134718 0 0 0 -0.014737687288837981 -0.040098588381185844 0.0079954053347130183 0 0.0079954053347130183 0.0039988899770927455 0 0 0 -0.0090249246010232903 -0.030069438536438162 0.0058780021146163028 0 0.0058780021146163028 0.006772864993264599 0 0 0 -0.0058241433857933872 -0.04324715526640549 0.0006356150673315214 0 0.0006356150673315214 0.0037855727713445395 0 0 0 -0.0098653956237652607 0.019207076039054014 -0.0074216586610001377 0 -0.0074216586610001377 0.037998206040490853 0 0 0 0.01430132051988621 0.019924454266988502 -0.0080934595576538093 0 -0.0080934595576538093 0.031830596959422558 0 0 0 0.01293876280660277 0.018945043712244328 -0.0085674028483360525 0 -0.0085674028483360525 0.027295333293158502 0 0 0 0.011560094251350711 0.016749765255585025 -0.0058075758123163103 0 -0.0058075758123163103 0.034070089819715724 0 0 0 0.012704963768825198 0.019314011996750535 -0.0018426859948800309 0 -0.0018426859948800309 0.038430034767062006 0 0 0 0.014436011690953139 0.021169844815056391 -0.0029598369196595104 0 -0.0029598369196595104 0.043469181570872442 0 0 0 0.016159756596482215 0.017219991882819904 -0.0082263040191242615 0 -0.0082263040191242615 0.042787273892918837 0 0 0 0.01500181644393468 0.01695062313956815 -0.0075283511633382968 0 -0.0075283511633382968 0.040077424511438781 0 0 0 0.014257011912751732 0.019888779519017928 -0.0083826253089268193 0 -0.0083826253089268193 0.040828035933912765 0 0 0 0.015179203863232675 0.019144382334649011 -0.0076091289480988075 0 -0.0076091289480988075 0.037487686108989823 0 0 0 0.014158017110909693 0.014029165705159736 -0.006399315797563164 0 -0.006399315797563164 0.036443321469905213 0 0 0 0.012618121793766247 0.016950124861954706 -0.0086502685863472858 0 -0.0086502685863472858 0.040033091625032519 0 0 0 0.014245804121746808 0.015700727208605558 -0.0094457443236514588 0 -0.0094457443236514588 0.038370219510440749 0 0 0 0.013517736679761565 0.016539020564291025 -0.011264434987906993 0 -0.011264434987906993 0.040384513665979227 0 0 0 0.014230883557567561 0.017485567902093269 -0.0072922052034650048 0 -0.0072922052034650048 0.047326670711876836 0 0 0 0.016203059653492523 0.044790888829970531 -0.033663980859990152 0 -0.033663980859990152 0.073650754417139225 0 0 0 0.02961041081177742 0.012851301071714755 -0.018844297141018984 0 -0.018844297141018984 0.045768560263386326 0 0 0 0.014654965333775277 0.040944546488113936 -0.022605678091622006 0 -0.022605678091622006 0.040349020024151874 0 0 0 0.02032339162806646 0.013311020997786659 -0.011257790687476191 0 -0.011257790687476191 0.040733619526330617 0 0 0 0.013511160131029321 0.046161557432855604 -0.0046852558085556523 0 -0.0046852558085556523 0.066405356821215289 0 0 0 0.028141728563517709 0.03612086309533255 -0.012561848277321271 0 -0.012561848277321271 0.035649882171353925 0 0 0 0.017942686316671619 0.066018963824235832 -0.017535369577887733 0 -0.017535369577887733 0.045297174096363899 0 0 0 0.027829034480149936 0.031158740762115195 -0.012350728588615523 0 -0.012350728588615523 0.033125649118964207 0 0 0 0.016071097470269871 0.022650537745391022 -0.0012646015218340662 0 -0.0012646015218340662 0.033549854937505418 0 0 0 0.014050098170724109 0.041580837358371515 -0.0081094634696771209 0 -0.0081094634696771209 0.025951954804004751 0 0 0 0.016883198040594058 0.020990348022561146 -0.0033642848025818226 0 -0.0033642848025818226 0.020264971221132584 0 0 0 0.010313829810923429 0.027920972664317006 -0.0044908325801097451 0 -0.0044908325801097451 0.014976528614976822 0 0 0 0.010724375319823468 0.023361058002304289 -0.014811131994889731 0 -0.014811131994889731 0.035542612274028121 0 0 0 0.014725917569083102 0.020029640348127861 -0.013670746537466694 0 -0.013670746537466694 0.026109148016189701 0 0 0 0.011534697091079391 0.028350261526526119 -0.01219129605848834 0 -0.01219129605848834 0.029116600563324213 0 0 0 0.014366715522462593 0.020025520185219213 -0.0071204404601369117 0 -0.0071204404601369117 0.015606984821300834 0 0 0 0.008908126251630016 0.022421093745249733 -0.0083244964743655996 0 -0.0083244964743655996 0.027948671157947184 0 0 0 0.012592441225799215 0.021432535439147651 -0.0060307377510679348 0 -0.0060307377510679348 0.017760083519463822 0 0 0 0.0097981547396528614 0.020172235319007234 -0.00045671618824032287 0 -0.00045671618824032287 0.015306988205967207 0 0 0 0.0088698058812436073 0.018758458598087821 -0.00048842242267460936 0 -0.00048842242267460936 0.0087585921029057559 0 0 0 0.0068792626752483942 0.017593952891353258 -0.0022808477623788466 0 -0.0022808477623788466 0.01396794161132436 0 0 0 0.0078904736256694072 0.021566903717564697 -0.0030351936238635956 0 -0.0030351936238635956 0.011130602212319207 0 0 0 0.0081743764824709804 0.01743762722875427 0.00096060155436432587 0 0.00096060155436432587 0.01176012450186927 0 0 0 0.0072994379326558802 0.011117779645401366 0.0045812169759351755 0 0.0045812169759351755 0.0071957096540582431 0 0 0 0.0045783723248649022 0.016089756699150713 0.00013711209687149173 0 0.00013711209687149173 0.0070112831470055294 0 0 0 0.0057752599615390615 0.013621152746010199 0.0048934432401140371 0 0.0048934432401140371 0.0055346594471225169 0 0 0 0.0047889530482831746 0.011204371724015833 0.0035387335645335146 0 0.0035387335645335146 0.0033938001113314152 0 0 0 0.0036495429588368124 0.0073252457330590486 0.0074444622145255369 0 0.0074444622145255369 0.0023025007708990016 0 0 0 0.0024069366259895143 0.019967143395998484 -0.00092876400424435758 0 -0.00092876400424435758 0.0107753420010533 0 0 0 0.0076856213492629416 0.019428585868826783 -0.0013803227766397259 0 -0.0013803227766397259 0.0096712179395070774 0 0 0 0.0072749509520834638 0.017377596344728904 0.0023225471432925882 0 0.0023225471432925882 0.0081775513640322262 0 0 0 0.0063887869271902851 0.01624462108422578 0.0017075904242209623 0 0.0017075904242209623 0.0068130728239740868 0 0 0 0.0057644234770499649 0.019571772876682287 0.00015595660793129033 0 0.00015595660793129033 0.012349015263541169 0 0 0 0.0079801970350558624 0.020377161744052585 0.0037565930909276742 0 0.0037565930909276742 0.0076065993769230443 0 0 0 0.0069959402802439053 0.023845992932966031 0.0034507485877148924 0 0.0034507485877148924 0.012491625489164472 0 0 0 0.0090844046055326266 0.024605367051077492 0.0027146083688093106 0 0.0027146083688093106 0.012010940049923344 0 0 0 0.0091540767752502066 0.021867671950624779 -0.00076945934730784926 0 -0.00076945934730784926 0.014891306285792945 0 0 0 0.0091897445591044326 0.021790377402994505 -0.00066182910129534002 0 -0.00066182910129534002 0.018219048723692143 0 0 0 0.010002356531671667 0.019552563336662932 -0.0023835346302432878 0 -0.0023835346302432878 0.016010817417769965 0 0 0 0.0088908451886082242 0.02295438108052953 -0.0024063609511186914 0 -0.0024063609511186914 0.026258719156555047 0 0 0 0.012303275059271153 0.023169525020845617 0.00084426885636917914 0 0.00084426885636917914 0.019779527940532275 0 0 0 0.010737263240344474 0.018723930197692883 -0.0040636168802301413 0 -0.0040636168802301413 0.023983211128782218 0 0 0 0.010676785331618775 0.020901800557794972 -0.0052018286879897055 0 -0.0052018286879897055 0.030842011344045364 0 0 0 0.012935952975460099 0.019295070220978979 -0.0065618285166432807 0 -0.0065618285166432807 0.021816852301484675 0 0 0 0.010277980630615913 0.025374128019733926 0.0017454637341299541 0 0.0017454637341299541 0.042026622444575897 0 0 0 0.016850187616077449 0.019864448320669754 -0.00099808448542749117 0 -0.00099808448542749117 0.028766086713341465 0 0 0 0.012157633758502803 0.022338000674480284 -0.0023508917939102101 0 -0.0023508917939102101 0.035156771532223921 0 0 0 0.014373693051676056 0.023816577495144067 0.00082372425209505194 0 0.00082372425209505194 0.021958516285819685 0 0 0 0.011443773445240932 0.025716639516302247 0.003030071999242121 0 0.003030071999242121 0.029031889778523647 0 0 0 0.013687132323706479 0.025712553610480686 0.0028994684519608478 0 0.0028994684519608478 0.028630489560841237 0 0 0 0.013585760792830477 0.027362025842491308 0.004015057431889576 0 0.004015057431889576 0.016810681314846799 0 0 0 0.011043176789334532 0.027126182490489332 0.004535003513943061 0 0.004535003513943061 0.017459683716381749 0 0 0 0.01114646655171778 0.030894267536926492 0.0063954057188894391 0 0.0063954057188894391 0.01372280983925279 0 0 0 0.011154269344044829 0.030027883411711434 0.0060610557348981381 0 0.0060610557348981381 0.0084576715184894111 0 0 0 0.0096213887325502113 0.027204427783831212 0.0042818284034939133 0 0.0042818284034939133 0.0044455143499767431 0 0 0 0.0079124855334519826 0.026687111082187111 0.0053210591628525452 0 0.0053210591628525452 0.0094497903679588054 0 0 0 0.0090342253625364834 0.027837276554099691 0.0042161414747155929 0 0.0042161414747155929 0.0098769389656778311 0 0 0 0.0094285538799443892 0.021741196609358984 0.0021513508693469302 0 0.0021513508693469302 0.00860105869613733 0 0 0 0.007585563826374082 0.021501984585109851 0.0048721166388879886 0 0.0048721166388879886 0.0049867063663678289 0 0 0 0.0066221727378694114 0.024370351640180622 0.0048864500103603728 0 0.0048864500103603728 0.0052432002388912297 0 0 0 0.007403387969767963 0.025113439487647642 0.0047196973318458391 0 0.0047196973318458391 0.0084326889953626263 0 0 0 0.0083865321207525663 0.025453258899917695 0.0045713192457165121 0 0.0045713192457165121 0.0031535440077268204 0 0 0 0.0071517007269111298 0.025073660284460991 0.0057845281471301437 0 0.0057845281471301437 0.0021015908758181649 0 0 0 0.0067938127900697871 0.02088150290528374 0.0054521786894175701 0 0.0054521786894175701 0.0023742593902279924 0 0 0 0.0058139405738779305 0.028199787297642859 0.0054231867049003568 0 0.0054231867049003568 0.0016765534276091693 0 0 0 0.0074690851813130118 0.028032365891795925 0.0041678625577620115 0 0.0041678625577620115 0.0016261872463531127 0 0 0 0.0074146382845372621 0.031310798192989826 0.0050259149751323362 0 0.0050259149751323362 0.0027152135384620225 0 0 0 0.0085065029328629665 0.0294268294409991 0.0041873031915026278 0 0.0041873031915026278 0.0025373730672586629 0 0 0 0.0079910506270644416 0.027906768112997693 0.005490629148395482 0 0.005490629148395482 0.0044235331225707542 0 0 0 0.0080825753088921062 0.0068349500550479569 0.0066902491943158556 0 0.0066902491943158556 0.0036208636061597146 0 0 0 0.0026139534153019166 0.012710941149996909 0.0055346957914188949 0 0.0055346957914188949 0.0015009597294848472 0 0 0 0.0035529752198704377 0.0069360690340047612 0.00727557719933122 0 0.00727557719933122 0.0014791232358410816 0 0 0 0.0021037980674614596 0.016266232285674302 0.0047794412374270508 0 0.0047794412374270508 0.00089294205442631142 0 0 0 0.0042897935850251534 0.013698264066676147 0.0057286876664399107 0 0.0057286876664399107 0.0047790407137178123 0 0 0 0.0046193261950984929 0.016924742439770248 0.004953166789018932 0 0.004953166789018932 0.0037250904876946662 0 0 0 0.0051624582318662354 0.018692593527707628 0.0027458162427950448 0 0.0027458162427950448 0.0043292328301130639 0 0 0 0.0057554565894551782 0.018589388200808476 0.0060477072327244467 0 0.0060477072327244467 0.005774046651061078 0 0 0 0.0060908587129673876 0.020390759161706816 0.0044769053917895615 0 0.0044769053917895615 0.0017628489723917756 0 0 0 0.0055384020335246427 0.01726907921546884 0.0049841564874477939 0 0.0049841564874477939 0.0024234281278952968 0 0 0 0.0049231268358410308 0.020464478406137819 0.0065524931497385284 0 0.0065524931497385284 0.0010569257492570108 0 0 0 0.0053803510388487049 0.014825915586439444 0.0070381035018669737 0 0.0070381035018669737 0.0026252195763701164 0 0 0 0.0043627837907023901 0.013828600968222832 0.0064676389293707873 0 0.0064676389293707873 0.00062562642661165985 0 0 0 0.0036135568487086211 0.0076729995024499981 0.0070475750379583053 0 0.0070475750379583053 0.00079801678739550852 0 0 0 0.0021177540724613732 0.0065426310087398631 0.0087282004198523874 0 0.0087282004198523874 6.1733739983860225e-07 0 0 0 0.0016358120865349254 0.006718118054025733 0.0073527252901012044 0 0.0073527252901012044 0.0004084288175602302 0 0 0 0.0017816367178964902 0.0010200788074529385 0.0091215775034485767 0 0.0091215775034485767 -2.9262309233203665e-05 0 0 0 0.00024770412455493024 0.004490571110647705 0.0099762131259100977 0 0.0099762131259100977 -0.00027638159862427127 0 0 0 0.0010535473780058575 0.00028877298520253725 0.0085992353691366277 0 0.0085992353691366277 0.00071926223841145553 0 0 0 0.0002520088059034982 0.0050875565821227944 0.0073245867293763624 0 0.0073245867293763624 -0.00025066324390589367 0 0 0 0.0012092233345542217 0.010624165704158457 0.0086408168045455994 0 0.0086408168045455994 0.00034485086662206996 0 0 0 0.0027422541426951313 0.0096717836704946093 0.0075403780908131707 0 0.0075403780908131707 0.00074322636977668805 0 0 0 0.0026037525100678239 0.011511933813111988 0.0090281184738112991 0 0.0090281184738112991 0.00058149658533298643 0 0 0 0.0030233575996112426 0.014876308823809097 0.0062319862646975435 0 0.0062319862646975435 0.0006025045732862 0 0 0 0.0038697033492738238 0.01575640491836628 0.0069571425913823644 0 0.0069571425913823644 0.0016584770615375236 0 0 0 0.0043537204949759493 0.019847295686616962 0.0072592801913805233 0 0.0072592801913805233 0.00061284991886042563 0 0 0 0.0051150364013693491 0.015834844827118551 0.0065979883459255009 0 0.0065979883459255009 0.0029718029870988011 0 0 0 0.004701661953554339 0.013640097866891817 0.0093890863349806834 0 0.0093890863349806834 0.0017178289111379093 0 0 0 0.003839481694507433 0.011992948455959648 0.0081259809505883854 0 0.0081259809505883854 0.0039976384199160841 0 0 0 0.0039976467189689327 0.0073163122733569536 0.010832715194818382 0 0.010832715194818382 0.00053361396073167006 0 0 0 0.0019624815585221559 0.0045991259818423513 0.0088936736622986234 0 0.0088936736622986234 0.0015314631850664401 0 0 0 0.001532647291727198 0.00033977275999316076 0.011629588150716253 0 0.011629588150716253 -0.00098850559473943889 0 0 0 -0.00016218320868656953 0.027374713812663667 0.0041546952757203119 0 0.0041546952757203119 0.0024178682293036977 0 0 0 0.0074481455104918387 0.028325151190155919 0.0046788723555698658 0 0.0046788723555698658 0.0014639771413538609 0 0 0 0.0074472820828774466 0.024579386096385509 0.0052684395966171946 0 0.0052684395966171946 0.0017497009303469053 0 0 0 0.0065822717566831048 0.02451717097062809 0.0057512917915879744 0 0.0057512917915879744 0.00094873082813412557 0 0 0 0.0063664754496905555 0.020605657786358606 0.0059446333323211736 0 0.0059446333323211736 0.0024028367774245937 0 0 0 0.0057521236409458004 0.023149233340110358 0.0058019092623793162 0 0.0058019092623793162 0.002653676628335884 0 0 0 0.0064507274921115597 0.018473131697740793 0.0068512983928608892 0 0.0068512983928608892 0.0061542411793314824 0 0 0 0.0061568432192680702 0.0185828425090384 0.0077824556447183123 0 0.0077824556447183123 0.0037252636605235594 0 0 0 0.0055770265423904881 0.022219123059701744 0.0058861264776871982 0 0.0058861264776871982 0.0074054291739290394 0 0 0 0.007406138058407695 0.022457342343654471 0.0058113888128872287 0 0.0058113888128872287 0.0039567317584148359 0 0 0 0.0066035185255173268 0.026984297381097588 0.0038775818649596739 0 0.0038775818649596739 0.0046412955570685225 0 0 0 0.0079063982345415271 0.024997578770727325 0.0049786761486670756 0 0.0049786761486670756 0.0020799309426482644 0 0 0 0.006769377428343896 0.024169462965027613 0.0046695771413710731 0 0.0046695771413710731 0.0043599743851647169 0 0 0 0.0071323593375480828 0.024666084979397242 0.0045255363738012332 0 0.0045255363738012332 0.0082211119533877469 0 0 0 0.0082217992331962489 0.026116599736793047 0.0026603958560516574 0 0.0026603958560516574 0.003598721418105019 0 0 0 0.0074288302887245174 0.028046909394123368 0.0011471755882817561 0 0.0011471755882817561 0.0093432856105381545 0 0 0 0.0093475487511653806 0.025699323830323438 0.00026901567883338712 0 0.00026901567883338712 0.0026748958627768366 0 0 0 0.0070935549232750694 0.02985461541061224 0.00019213246104486192 0 0.00019213246104486192 0.0037413659451587234 0 0 0 0.0083989953389427413 0.029620817692972642 0.0018061628342649059 0 0.0018061628342649059 0.0025450579142588118 0 0 0 0.008041468901807864 0.030308939833335928 0.0026398371882015055 0 0.0026398371882015055 0.0018038943603217918 0 0 0 0.0080282085484144287 0.028937239044775871 0.0012213641522947072 0 0.0012213641522947072 0.00068571251137496516 0 0 0 0.0074057378890377114 0.032293903499297803 0.001397915053215612 0 0.001397915053215612 0.0017628320423931591 0 0 0 0.0085141838854227419 0.030236809004200262 0.0023880305124230439 0 0.0023880305124230439 -0.00014574717812909253 0 0 0 0.0075227654565177878 0.031005229992500785 1.9750380669248421e-05 0 1.9750380669248421e-05 -0.0015479891714981174 0 0 0 0.0073643102052506652 0.028555487243153658 -0.0032375350459999137 0 -0.0032375350459999137 -0.0022002492889344021 0 0 0 0.0065888094885548157 0.030129957020411886 -0.0011730557242565177 0 -0.0011730557242565177 0.0009136607275886709 0 0 0 0.0077609044370001382 0.02881054180263069 -0.00093810440568629547 0 -0.00093810440568629547 0.0014687851110140337 0 0 0 0.0075698317284111786 0.027620585301901306 -0.0011166146273328965 0 -0.0011166146273328965 0.0092084357419618904 0 0 0 0.0092072552609657968 0.027013255243614101 -0.0032032141172277351 0 -0.0032032141172277351 0.0089974712988080564 0 0 0 0.0090026816356055406 0.025135653979881947 -0.00286748049055233 0 -0.00286748049055233 0.002957201494031658 0 0 0 0.0070232138684784007 0.022427787470368402 -0.0062962637601813778 0 -0.0062962637601813778 0.0074741310208828833 0 0 0 0.0074754796228128206 0.027033925411718639 -0.0037913255422625664 0 -0.0037913255422625664 0.0025039882333558997 0 0 0 0.0073844784112686336 0.021602425282894015 -0.0063864802708083626 0 -0.0063864802708083626 0.00030227524571635467 0 0 0 0.0054761751321525925 0.013761079784748198 -0.0091186830428819313 0 -0.0091186830428819313 0.0045828931776068548 0 0 0 0.0045859932405887642 0.015108244231393441 -0.010452415465200857 0 -0.010452415465200857 -0.0017370614512917312 0 0 0 0.0033427956950254269 0.006907160878931215 -0.013334881212059183 0 -0.013334881212059183 -0.0028000457517733286 0 0 0 0.0010267787817894707 0.014692138079195243 -0.010438038786463814 0 -0.010438038786463814 -0.0047955746461083512 0 0 0 0.0024741408582717225 0.017459994421165116 -0.0076948119695021619 0 -0.0076948119695021619 -0.0026458438707470215 0 0 0 0.0037035376376045263 0.021673684988251507 -0.0065063865659922022 0 -0.0065063865659922022 -0.00017454508568647258 0 0 0 0.0053747849756412575 0.011514406837319489 -0.0094772798982236811 0 -0.0094772798982236811 -0.002218529379115361 0 0 0 0.0023239693645510304 0.021558998805305297 -0.0068128567981775908 0 -0.0068128567981775908 -0.0026679805234194331 0 0 0 0.0047227545704714652 0.028017929205104763 -0.0041067261016092399 0 -0.0041067261016092399 -0.003726141377394375 0 0 0 0.006072946956927598 0.029337210279791949 -0.0021561627013531419 0 -0.0021561627013531419 -0.00078445348506171741 0 0 0 0.0071381891986825622 0.030217410868894547 -0.0028620679393280566 0 -0.0028620679393280566 -0.0018266370349676007 0 0 0 0.00709769345848174 0.029802215824773468 -0.0026364795288056127 0 -0.0026364795288056127 -0.003067594780435382 0 0 0 0.0066836552610845179 0.036295958459252743 -0.00028031816370539266 0 -0.00028031816370539266 -0.001832074496324651 0 0 0 0.0086159709907320196 0.024468976501692122 -0.0071253168564885082 0 -0.0071253168564885082 -0.0048604064516756529 0 0 0 0.0049021425125041138 0.018795494181135238 -0.00992393566666026 0 -0.00992393566666026 -0.0043076713370114803 0 0 0 0.0036219557110309421 0.024141034722175679 -0.0066315677977687691 0 -0.0066315677977687691 -0.0040699154612127315 0 0 0 0.0050177798152407378 0.026010791075705732 -0.0042926877744644005 0 -0.0042926877744644005 -0.0024724018954975103 0 0 0 0.0058845972950520523 0.01463561945047495 -0.0095181520743969298 0 -0.0095181520743969298 -0.0052463936091484732 0 0 0 0.0023473064603316187 0.024490727364642188 -0.010004704478942937 0 -0.010004704478942937 -0.0049522026386620704 0 0 0 0.0048846311814950277 0.029022703439679595 -0.0071885666556636574 0 -0.0071885666556636574 -0.0023090068336436773 0 0 0 0.006678424151508983 0.027484735002538847 -0.006035407129864708 0 -0.006035407129864708 -0.0025786701158950834 0 0 0 0.0062265162216609393 0.039079501434495262 -0.0019893189177395644 0 -0.0019893189177395644 0.0010286089551184718 0 0 0 0.010027027597403431 0.029052236419513256 -0.0088526908954100706 0 -0.0088526908954100706 0.00011834634282413961 0 0 0 0.0072926456905843436 0.02866439005546742 -0.0086136882547374824 0 -0.0086136882547374824 0.00058015802038084013 0 0 0 0.0073111370189620608 0.033766056553366536 5.2623915664079499e-05 0 5.2623915664079499e-05 -2.2948327509478424e-05 0 0 0 0.0084357770564642571 0.034665493502328296 -0.0044771280254121519 0 -0.0044771280254121519 -0.0021963292064310462 0 0 0 0.008117291073974308 0.039149225390741796 0.00055774169618881054 0 0.00055774169618881054 -0.00013600809343155212 0 0 0 0.0097533043243275622 0.04473267973847566 0.0041798300794557465 0 0.0041798300794557465 0.0058921529949445932 0 0 0 0.012656208183355062 0.038458157101728702 0.004814492586983193 0 0.004814492586983193 0.0055351578203320477 0 0 0 0.010998328730515199 0.040427580400723882 0.003905772102995593 0 0.003905772102995593 0.0069529188853350889 0 0 0 0.01184512482151473 0.036952224782762541 0.0027244130064748855 0 0.0027244130064748855 0.0012371809141401855 0 0 0 0.0095473514242256936 0.036774759551114609 0.005658647416244245 0 0.005658647416244245 0.0048159099236916554 0 0 0 0.010397667368701567 0.038152706072825282 0.007287257227070517 0 0.007287257227070517 0.011094490230251209 0 0 0 0.012311799075769118 0.035291544108235456 0.0047119163624596387 0 0.0047119163624596387 0.0059644068685801282 0 0 0 0.010313987744203886 0.034615201634524889 0.0071094333967271469 0 0.0071094333967271469 0.010779525176858769 0 0 0 0.011348681702845921 0.031417733961337478 0.0053451716111481452 0 0.0053451716111481452 0.0052320796131021374 0 0 0 0.009162453393609913 0.030779111132176233 0.0047759552494231706 0 0.0047759552494231706 0.0051470271482946181 0 0 0 0.0089815345701177128 0.033312315397906786 0.0034666581556766262 0 0.0034666581556766262 0.0018429718662017211 0 0 0 0.0087888218160271266 0.034437713803437874 0.0044398017786908307 0 0.0044398017786908307 0.0026461045118166228 0 0 0 0.0092709545788136234 0.030611106267464952 0.0032009109449154024 0 0.0032009109449154024 0.00056430537248390589 0 0 0 0.0077938529099872145 0.03387633806458866 0.0027805860583485021 0 0.0027805860583485021 0.0011401625969615838 0 0 0 0.0087541251653875628 0.031743461844616724 0.0014302461226812079 0 0.0014302461226812079 -0.00073434708786606316 0 0 0 0.0077522786891876675 0.033300296853911025 0.00088346678083148071 0 0.00088346678083148071 -0.00023246237504605575 0 0 0 0.0082669586197162467 0.032661709617737983 -0.0016769372394384659 0 -0.0016769372394384659 -0.0017506570158893502 0 0 0 0.0077277631504621596 0.033956004388757177 0.0023640012936991086 0 0.0023640012936991086 0.00089725221387040519 0 0 0 0.0087133141506568965 0.036164156076436277 0.0026265178557895287 0 0.0026265178557895287 0.00021363574500929644 0 0 0 0.0090944479553613875 -0.061698885944874146 -0.0039533717688662266 0 -0.0039533717688662266 -0.0024108233795719584 0 0 0 -0.016027427331111527 -0.043432371371761813 -0.010763707590823745 0 -0.010763707590823745 -0.0011770928734487415 0 0 0 -0.011152366061302635 -0.04851048486301146 -0.0050356174158655963 0 -0.0050356174158655963 -0.00028247937870073611 0 0 0 -0.01219824106042805 -0.042603281744949401 -0.0073908692686212351 0 -0.0073908692686212351 0.0033431787634604243 0 0 0 -0.0098150257453722429 -0.039301472407773909 -0.0047716432437310986 0 -0.0047716432437310986 0.002798839817880712 0 0 0 -0.0091256581474732992 -0.039535331705967305 -0.0028140178315874185 0 -0.0028140178315874185 -0.0046209205896896293 0 0 0 -0.011039063073914234 -0.036627638898073495 -0.0037225672451840341 0 -0.0037225672451840341 -0.012184889970452464 0 0 0 -0.01220313221713149 -0.036781794532418803 -0.0053878737129640303 0 -0.0053878737129640303 -0.0052033288347188046 0 0 0 -0.010496280841784401 -0.035782816912665584 -0.0096330192009589973 0 -0.0096330192009589973 -0.0033967116797739179 0 0 0 -0.0097948821481098781 -0.031971527975762373 -0.0099662169855739904 0 -0.0099662169855739904 -0.0020712551362110417 0 0 0 -0.0085106957779933524 -0.027555814723660858 -0.010064112576216229 0 -0.010064112576216229 -0.0091909142970324782 0 0 0 -0.0091866822551733337 -0.027549340336084322 -0.010068115326436399 0 -0.010068115326436399 -0.009170414431467348 0 0 0 -0.0091799386918879171 -0.0307324294513329 -0.011955743379689368 0 -0.011955743379689368 -0.0036608140713432491 0 0 0 -0.0085983108806690391 -0.02089870654651789 -0.012218316771811458 0 -0.012218316771811458 -0.0011136464806804254 0 0 0 -0.0055030882567995796 -0.034660742667943285 -0.011125986655201248 0 -0.011125986655201248 0.00067734531413962337 0 0 0 -0.0084958493384509216 -0.049594652410227813 -0.011015675451346948 0 -0.011015675451346948 -0.0016655820086438657 0 0 0 -0.012815058604717915 -0.019888100587798115 -0.014650202515917341 0 -0.014650202515917341 -0.00051581255401930703 0 0 0 -0.0051009782854543537 -0.036692706335506087 -0.013325609074500304 0 -0.013325609074500304 -0.0031258852538944976 0 0 0 -0.0099546478973501495 -0.017445137304886178 -0.012263581237512946 0 -0.012263581237512946 -0.0025481359242901526 0 0 0 -0.0049983183072940833 -0.013799346582887673 -0.012616306250589637 0 -0.012616306250589637 -0.0042758034933519026 0 0 0 -0.0045187875190598956 -0.017474140538695074 -0.01550438760898943 0 -0.01550438760898943 -0.0029928568233952599 0 0 0 -0.0051167493405225844 -0.015784490255577863 -0.014345257814328629 0 -0.014345257814328629 -0.0017092607616187097 0 0 0 -0.0043734377542991448 -0.016858280381513151 -0.013637185748676214 0 -0.013637185748676214 -0.0045331143117362926 0 0 0 -0.0053478486733123604 -0.0070228621165023099 -0.011771809610929185 0 -0.011771809610929185 -0.0023479438855189072 0 0 0 -0.0023427015005053039 -0.0063401528650885962 -0.014052281812400471 0 -0.014052281812400471 -0.0037723441922901321 0 0 0 -0.0025281242643446812 -0.0029044741006597329 -0.011067954543775715 0 -0.011067954543775715 -0.0013946154797395589 0 0 0 -0.0010747723950998208 -0.003415424544958896 -0.01502546628157251 0 -0.01502546628157251 -0.0029417579165045352 0 0 0 -0.0015892956153658599 0.0037649352980256468 -0.01108377538446058 0 -0.01108377538446058 0.0012563415611719694 0 0 0 0.0012553192147994041 0.0099770465967710352 -0.0091261418055562198 0 -0.0091261418055562198 -0.0004962091263799517 0 0 0 0.0023702093675977689 0.004300338129213932 -0.014128820554931629 0 -0.014128820554931629 -0.004121774278237636 0 0 0 4.4640962744070534e-05 0.00041045353297202401 -0.013670229098454625 0 -0.013670229098454625 -0.0042008759694049033 0 0 0 -0.00094760560910822113 0.0010684198260748012 -0.01096283997978164 0 -0.01096283997978164 -0.0035637571611685862 0 0 0 -0.00062383433377344527 0.0098866464353669983 -0.013415541176181919 0 -0.013415541176181919 -0.0066279268187581092 0 0 0 0.00081467990415222055 0.015285847210540986 -0.010446282179235501 0 -0.010446282179235501 -0.0039127556714122309 0 0 0 0.0028432728847821932 0.0014969433744083972 -0.015486527250680058 0 -0.015486527250680058 -0.0060591576938530886 0 0 0 -0.0011405535798611737 0.014806480812805049 -0.012862598056046056 0 -0.012862598056046056 -0.0044937153916033666 0 0 0 0.0025781913553004198 0.0027253066067765663 -0.012684720371059267 0 -0.012684720371059267 0.0003279600210195641 0 0 0 0.00076331665694903315 -0.0027229581012476805 -0.017276646507200347 0 -0.017276646507200347 -0.0034301548811206777 0 0 0 -0.0015382782455920915 0.013357643146069281 -0.011389424429071796 0 -0.011389424429071796 -0.0012692527220603128 0 0 0 0.0030220976060022428 -0.0023405963055331495 -0.015653986270644175 0 -0.015653986270644175 -0.0018066792250699543 0 0 0 -0.0010368188826507755 0.00062396839147154737 -0.018426251421858306 0 -0.018426251421858306 0.00031898495042302069 0 0 0 0.00023573833547364158 -0.020432506451710401 -0.015607073311804562 0 -0.015607073311804562 -0.0043955437823881283 0 0 0 -0.0062070125585246393 -0.018814809221603508 -0.017262648400238199 0 -0.017262648400238199 -0.0030295612748791022 0 0 0 -0.0054610926241206465 -0.020279702567007455 -0.014053158757144184 0 -0.014053158757144184 -0.0010121345137474452 0 0 0 -0.0053229592701887242 -0.0016235767535817715 -0.013500472493486463 0 -0.013500472493486463 -0.0017338171241536096 0 0 0 -0.00083934846943384614 -0.01244989771889987 -0.015586330200673636 0 -0.015586330200673636 -0.0046099297570610653 0 0 0 -0.0042649568689902308 -0.032922711329775062 -0.014544064786288429 0 -0.014544064786288429 -0.0025816964792302263 0 0 0 -0.0088761019522513099 -0.031203549908294999 -0.013514601398260974 0 -0.013514601398260974 0.0013139201067295242 0 0 0 -0.0074724074503913704 -0.043385909992670953 -0.012060805197365281 0 -0.012060805197365281 0.00051871433183194732 0 0 0 -0.010716798915209751 -0.033034778971494878 -0.018266183104754245 0 -0.018266183104754245 0.00047019683538054857 0 0 0 -0.0081411455340285755 -0.040770324414518923 -0.013188517451900457 0 -0.013188517451900457 -0.0025349426839627563 0 0 0 -0.010826316774620409 -0.022303771863205452 -0.020196461136527222 0 -0.020196461136527222 0.00065469701912844111 0 0 0 -0.0054122687110192544 -0.041030637739641808 -0.015937721524996507 0 -0.015937721524996507 0.0024543665545231565 0 0 0 -0.0096440677962796612 -0.06482511663012748 -0.010920046354593971 0 -0.010920046354593971 -0.0027338648989051369 0 0 0 -0.016889745382258171 -0.068752520979101284 -0.012323064036179804 0 -0.012323064036179804 -0.0002809999736964261 0 0 0 -0.017258380238199429 -0.086590523443628303 -0.0072934509914730043 0 -0.0072934509914730043 0.00017200717301205787 0 0 0 -0.021604629067654063 -0.061793478636485107 -0.0058499650973122229 0 -0.0058499650973122229 0.00060462161219004829 0 0 0 -0.015297214256073766 -0.073745635352450337 -0.0068979259134366285 0 -0.0068979259134366285 -0.00033949279985645477 0 0 0 -0.018521282038076705 -0.045136867380320286 -0.013521248745739194 0 -0.013521248745739194 -0.00030413257934118129 0 0 0 -0.011360249989915364 -0.061263635190892431 -0.0050636601278891934 0 -0.0050636601278891934 -0.0030434382705354299 0 0 0 -0.016076768365356965 -0.046803301568697782 -0.0092006106390571454 0 -0.0092006106390571454 0.002410149366740227 0 0 0 -0.011098288050489392 -0.086250927960736939 -0.0056009958566760956 0 -0.0056009958566760956 0.0058769494115896437 0 0 0 -0.0200934946372868 -0.12615450626894498 0.00060718999722741973 0 0.00060718999722741973 0.0023852821702398941 0 0 0 -0.030942306024676271 -0.080859709837109189 -0.012844456375359924 0 -0.012844456375359924 0.0065552849960636428 0 0 0 -0.018576106210261401 -0.076632629418123474 -0.0010211077977987926 0 -0.0010211077977987926 0.0049550327775147313 0 0 0 -0.017919399160152207 -0.11176666160625018 -0.0046278891105191941 0 -0.0046278891105191941 0.0032475215908625704 0 0 0 -0.027129785003846902 -0.097672364056817021 -0.0064067875726720293 0 -0.0064067875726720293 0.00088275018266150557 0 0 0 -0.024197403468538888 -0.066250556565965638 -0.0070836970920875788 0 -0.0070836970920875788 0.0019829955461082398 0 0 0 -0.016066890254964376 -0.074748954360504147 -0.005556372116808447 0 -0.005556372116808447 0.0023319213179932054 0 0 0 -0.01810425826062774 -0.071576710750997696 -0.014617897204758147 0 -0.014617897204758147 0.0046299033117380844 0 0 0 -0.016736701859814903 -0.041622778966030616 -0.014904048533587563 0 -0.014904048533587563 0.005149883241521401 0 0 0 -0.0091182239311273089 -0.043104714614180487 -0.01524752663256642 0 -0.01524752663256642 0.00086997426990699511 0 0 0 -0.010558685086068369 -0.028352889283436256 -0.014418649280824638 0 -0.014418649280824638 -0.0029038974936432035 0 0 0 -0.007814196694269861 -0.040593022851074523 -0.019420790351729774 0 -0.019420790351729774 0.0095722540151235713 0 0 0 -0.0077551922089877517 -0.053851073968748803 -0.0085182332018486628 0 -0.0085182332018486628 0.0040119361201530895 0 0 0 -0.012459784462148928 -0.042310638852884698 -0.004166796588732119 0 -0.004166796588732119 0.010176793619623576 0 0 0 -0.0080334613083152869 -0.0066745141188964408 -0.013949551685992809 0 -0.013949551685992809 0.013055668282324795 0 0 0 0.0015952885408570816 -0.0016176553977617913 -0.011138167835581275 0 -0.011138167835581275 0.027113317844270485 0 0 0 0.0063739156116271803 0.012643757211461319 -0.018280434117012662 0 -0.018280434117012662 0.010857244787200515 0 0 0 0.0058752504996654603 -0.031699962486153248 -0.011817745914349569 0 -0.011817745914349569 0.012681699674102292 0 0 0 -0.0047545657030127406 -0.012011850095953236 -0.018186069764230192 0 -0.018186069764230192 0.0068020935215053271 0 0 0 -0.0013024391436119798 -0.031600497970056485 -0.020403291065475254 0 -0.020403291065475254 0.0040564883212142883 0 0 0 -0.0068860024122105387 -0.014277867011492414 -0.021607410576676693 0 -0.021607410576676693 0.00018498169739141618 0 0 0 -0.0035232213285252521 -0.010288100718614695 -0.015446793084344034 0 -0.015446793084344034 0.0035001536660632399 0 0 0 -0.001696986763137866 0.0065293678243940421 -0.019366886528944718 0 -0.019366886528944718 0.0044017456055801679 0 0 0 0.0027327783574935521 -0.010684775982860868 -0.014414579094345757 0 -0.014414579094345757 0.0085541286431801283 0 0 0 -0.00053266183492018185 0.0079406987197116786 -0.012999002672451443 0 -0.012999002672451443 0.0054270354412236516 0 0 0 0.0033419335402338326 0.02646263859158253 -0.016573066141801516 0 -0.016573066141801516 0.0065441018480220242 0 0 0 0.0082516851099011385 0.01757361696953082 -0.016610786625439775 0 -0.016610786625439775 0.0013089684128658637 0 0 0 0.0047206463455991719 0.034325806939648221 -0.012822245589789767 0 -0.012822245589789767 0.0039508176513469093 0 0 0 0.0095691561477487825 0.018187531925627422 -0.010553539150461956 0 -0.010553539150461956 0.0016032636021458919 0 0 0 0.0049476988819433312 0.02814211188534602 -0.0084224104218843 0 -0.0084224104218843 0.011129069988941045 0 0 0 0.0098177954685717723 0.046465116818113619 -0.013542923335004991 0 -0.013542923335004991 0.015521694954007056 0 0 0 0.015496702943030162 0.015361397328269771 -0.011603266467159604 0 -0.011603266467159604 0.017818634209923259 0 0 0 0.0082950078845482542 0.038770461257010648 -0.015405576630440128 0 -0.015405576630440128 0.020606717724396123 0 0 0 0.014844294745351698 0.038720669299165338 -0.0061442773335068281 0 -0.0061442773335068281 0.028741036028055528 0 0 0 0.016865426331805218 0.062070908211444384 -0.00088908832063675988 0 -0.00088908832063675988 0.052800733687471096 0 0 0 0.028717910474728867 0.066661580873067602 -0.013943775425071969 0 -0.013943775425071969 0.04081164773664106 0 0 0 0.026868307152427148 0.026460835557639409 -0.0061815089913268562 0 -0.0061815089913268562 0.034416583069875051 0 0 0 0.015219354656878625 0.014922842771652838 -0.018621933335542178 0 -0.018621933335542178 0.036275179573174915 0 0 0 0.012799505586206933 0.048460233741629111 -0.018899792128789394 0 -0.018899792128789394 0.071782320867771365 0 0 0 0.030060638652350119 0.070137389478066609 -0.010301288524698499 0 -0.010301288524698499 0.12783063700543329 0 0 0 0.049492006620874995 0.074361207547550379 0.01883978375369133 0 0.01883978375369133 0.11212217893547122 0 0 0 0.046620846620755434 0.06481240221304202 0.016261602352448647 0 0.016261602352448647 0.13535927132557557 0 0 0 0.0500429183846543 0.050421579591139298 0.014331756549705088 0 0.014331756549705088 0.088844535995827756 0 0 0 0.034816528896741805 0.029302501891276728 -0.0052660728040266891 0 -0.0052660728040266891 0.067100255491215843 0 0 0 0.024100689345623122 0.043088372443840992 0.0045196884636767021 0 0.0045196884636767021 0.071160990968932719 0 0 0 0.028562340853193386 0.018737407755113941 0.025147043633269583 0 0.025147043633269583 0.07645359714978911 0 0 0 0.023797751226225752 0.0013038573426255307 0.014087090207689973 0 0.014087090207689973 0.044739912588046771 0 0 0 0.011510942482668096 -0.016647407399569075 0.019472500054936726 0 0.019472500054936726 0.052813810320987975 0 0 0 0.0090416007303547319 -0.0071952160652121455 -0.002646814991919961 0 -0.002646814991919961 0.026808557483019135 0 0 0 0.0049033353544517266 -0.026875019758400218 0.0033649228119020658 0 0.0033649228119020658 0.026637293655164224 0 0 0 -5.9431525809005258e-05 0.0043728084815577509 -1.1604915029106433e-05 0 -1.1604915029106433e-05 0.062230359479398256 0 0 0 0.016650791990238979 -0.027380676277500654 -0.014220772504015822 0 -0.014220772504015822 0.028435785556797516 0 0 0 0.00026377731982421548 -0.055510521435868793 -0.012014124569297929 0 -0.012014124569297929 0.013032583207839066 0 0 0 -0.010619484557007425 -0.057270147869225477 0.0028869813898122071 0 0.0028869813898122071 0.013498396216330089 0 0 0 -0.01094293791322383 -0.038049580016003476 -0.0073458212769196424 0 -0.0073458212769196424 0.023473358019114987 0 0 0 -0.0036440554992221152 -0.04873828017431818 0.014172838244396857 0 0.014172838244396857 0.024765679809606062 0 0 0 -0.0059931500911780296 -0.028822202243736883 0.010934521100183031 0 0.010934521100183031 0.018404497953588894 0 0 0 -0.002604426072537025 -0.061609719375431637 0.020052490954673652 0 0.020052490954673652 0.014012694463388931 0 0 0 -0.011899256228010687 -0.049379089853090585 0.012857498391486005 0 0.012857498391486005 0.029989349689526268 0 0 0 -0.0048474350408911349 -0.056719801226215116 0.0033495956745273336 0 0.0033495956745273336 0.012676875124765341 0 0 0 -0.011010731525362472 -0.081398987593243932 0.0093587980277690108 0 0.0093587980277690108 0.012900426863655279 0 0 0 -0.017124640182397177 -0.076497478303838351 0.0034817253966259454 0 0.0034817253966259454 0.0080949622206734073 0 0 0 -0.017100629020791236 -0.1202551574738126 0.0048430298880320355 0 0.0048430298880320355 0.0095645029565877837 0 0 0 -0.027672663629306149 -0.088780791125436687 -0.00020305540674256384 0 -0.00020305540674256384 0.0060510474024923488 0 0 0 -0.020682435930736154 -0.13063739428582058 -0.0020877226651625502 0 -0.0020877226651625502 0.0065664145709387611 0 0 0 -0.031017744928720448 -0.093595161641123081 0.0034659427922232033 0 0.0034659427922232033 0.0036796214400269256 0 0 0 -0.022478885050273983 -0.07454767788644677 -0.0072599174745516248 0 -0.0072599174745516248 0.0090677252059643831 0 0 0 -0.016369988170120624 -0.092726668026532719 -0.0097742595837633645 0 -0.0097742595837633645 0.0062141967675261589 0 0 0 -0.021628117814751643 0.045063718482149448 0.013405715557739537 0 0.013405715557739537 0.029685572792214475 0 0 0 0.018687322818590989 0.048391311219646863 0.01488747146162636 0 0.01488747146162636 0.038112846076646584 0 0 0 0.021626039324073369 0.052270813396506369 0.015539831281946952 0 0.015539831281946952 0.039359606104143741 0 0 0 0.022907604875162527 0.040246011277315183 0.011958121995489573 0 0.011958121995489573 0.043602587034562226 0 0 0 0.020962149577969342 0.030997423146460579 0.0073383152325140564 0 0.0073383152325140564 0.044735879511576773 0 0 0 0.01893332566450933 0.034174857716775489 0.0089145300552655338 0 0.0089145300552655338 0.029468708438865218 0 0 0 0.015910891538910198 0.025104167130174961 0.0042859143902278449 0 0.0042859143902278449 0.030570724871344584 0 0 0 0.013918723000379879 0.03864048168005281 0.011078890563685235 0 0.011078890563685235 0.031036837101022161 0 0 0 0.01741932969526875 0.03138103022644724 0.0063714277984648088 0 0.0063714277984648088 0.018994979223056492 0 0 0 0.01259400236237594 0.031334884578248449 0.0074168716483821121 0 0.0074168716483821121 0.024933852403207592 0 0 0 0.014067184245364012 0.031175818754645243 0.0052143089957575901 0 0.0052143089957575901 0.010896328968474735 0 0 0 0.010518036930779994 0.036022120322313639 0.0090336191681514733 0 0.0090336191681514733 0.019472734646103954 0 0 0 0.013873713742104402 0.037556762978200216 0.007121652078415479 0 0.007121652078415479 0.011069725722879065 0 0 0 0.012156622175269818 0.037986572346446999 0.008677908009236469 0 0.008677908009236469 0.022783439502008278 0 0 0 0.015192502962113823 0.042874918272498501 0.011107673920402544 0 0.011107673920402544 0.019660755662686245 0 0 0 0.015633918483796173 0.044689967222247537 0.0065963986894780873 0 0.0065963986894780873 0.011444636890160169 0 0 0 0.014033651028101925 0.039880078314651381 0.0059198950953180092 0 0.0059198950953180092 0.010450360625035109 0 0 0 0.01258260973492162 0.038361710691344503 -0.0019948131554482461 0 -0.0019948131554482461 0.0034228263121411171 0 0 0 0.010446134250871406 0.049164734501207834 0.001636096870953424 0 0.001636096870953424 0.01435443273665462 0 0 0 0.015879791809465617 0.046683100831504551 0.0036778788778831055 0 0.0036778788778831055 0.0099375444786756265 0 0 0 0.014155161327545043 0.048853920004689688 0.010452367124450683 0 0.010452367124450683 0.0211763177942106 0 0 0 0.017507559449725065 0.035965546338449374 -0.0042559600410767874 0 -0.0042559600410767874 0.0050728504578605536 0 0 0 0.010259599199077481 0.044342315128345126 -0.0070946937752902201 0 -0.0070946937752902201 0.0085516587724983884 0 0 0 0.013223493475210887 0.049834494451542748 0.00043394589341420181 0 0.00043394589341420181 0.017480437565431335 0 0 0 0.016828733004243521 0.058225665456497641 -0.0040190977848873818 0 -0.0040190977848873818 0.027057689413784267 0 0 0 0.02132083871757048 0.070419170723767494 0.0075353765535297323 0 0.0075353765535297323 0.038573133144433704 0 0 0 0.027248075967050284 0.056192716232047024 0.010549319097747645 0 0.010549319097747645 0.023404359797484255 0 0 0 0.019899269007382828 0.064003198684081539 0.0087908600777969748 0 0.0087908600777969748 0.022819265697303096 0 0 0 0.021705616095346155 0.056807713027132459 0.010946619852269891 0 0.010946619852269891 0.034186614896616896 0 0 0 0.022748581980937342 0.073390673567682724 0.013230001984914405 0 0.013230001984914405 0.038502561570545171 0 0 0 0.02797330878455697 0.063561194668876483 0.021511107718318441 0 0.021511107718318441 0.064229476898247928 0 0 0 0.031947667891781106 0.095658767577342416 0.025184652981265068 0 0.025184652981265068 0.063905301510457271 0 0 0 0.039891017271949956 0.082264523429638081 0.022567865091104318 0 0.022567865091104318 0.095009600439534547 0 0 0 0.04431853096729315 0.063212933671433019 0.023874797809638866 0 0.023874797809638866 0.094361651073440966 0 0 0 0.039393646186218517 0.072312241190653506 0.019239616298710585 0 0.019239616298710585 0.067205070342240353 0 0 0 0.034879327883223496 0.09407877241892651 -0.0029555359696341113 0 -0.0029555359696341113 0.057719801650342462 0 0 0 0.037949643517317243 0.10023385900728767 0.010002170137950198 0 0.010002170137950198 0.086030098282818657 0 0 0 0.046565989322526577 0.10372889339196195 -0.014516518380564503 0 -0.014516518380564503 0.07558733809522078 0 0 0 0.044829057871795669 0.18414297140850239 -0.0093493990304126112 0 -0.0093493990304126112 0.12231875504799902 0 0 0 0.076615431614125332 0.12691292542208876 -0.0038119890951721358 0 -0.0038119890951721358 0.24692529022980036 0 0 0 0.093459553912972296 0.17430535318690896 0.071933055269988277 0 0.071933055269988277 0.18007894710242611 0 0 0 0.088596075072333774 0.090866501327338089 0.040000031083670805 0 0.040000031083670805 0.1531335520206725 0 0 0 0.061000013337002661 0.047223177022950591 0.014351825737212151 0 0.014351825737212151 0.09115936782801351 0 0 0 0.034595636212741018 0.087775094916198421 0.025734264792238448 0 0.025734264792238448 0.097807472671293999 0 0 0 0.046395641896873105 0.052612935404546382 -0.018220052181861766 0 -0.018220052181861766 0.17299429623242613 0 0 0 0.056401807909243137 0.039319515440476058 -0.019416878439930139 0 -0.019416878439930139 0.097263546009599772 0 0 0 0.03414576536251894 0.039813356383347806 -0.019649734213601212 0 -0.019649734213601212 0.10300582135328772 0 0 0 0.035704794434158874 0.049436697982079697 0.013556122014286277 0 0.013556122014286277 0.097168391894312534 0 0 0 0.036651272469098051 0.045367847556267542 0.013411292532007242 0 0.013411292532007242 0.059220476832400226 0 0 0 0.026147081097166937 0.041910820359309917 0.0090467280914729338 0 0.0090467280914729338 0.087244177400076714 0 0 0 0.032288749439846665 0.029037020081434092 0.0016270799668507752 0 0.0016270799668507752 0.057086581355255808 0 0 0 0.021530900359172475 0.036886947138922543 0.0094060250415312872 0 0.0094060250415312872 0.067736009637417827 0 0 0 0.026155739194085096 0.037801115964238463 0.01114525048621778 0 0.01114525048621778 0.042242005521470546 0 0 0 0.020010780371427242 0.047966494887658737 0.017495885802201294 0 0.017495885802201294 0.063383607317002821 0 0 0 0.027837525551165393 0.025720689718899847 0.0039273959297944907 0 0.0039273959297944907 0.041218354362701562 0 0 0 0.016734761020400349 0.027044704661689581 0.002434237024611683 0 0.002434237024611683 0.054498215667305651 0 0 0 0.02038573008224881 0.034346923163026566 -0.01861692958315837 0 -0.01861692958315837 0.062425381972667497 0 0 0 0.024193076283923517 0.024052327215570234 -0.0074538319086213545 0 -0.0074538319086213545 0.052893232551365424 0 0 0 0.019236389941733927 0.021472039416793622 -0.0059372385574182826 0 -0.0059372385574182826 0.048826741635345255 0 0 0 0.017574695263034717 0.03143481667094903 -0.0011963890088854835 0 -0.0011963890088854835 0.072987098461810868 0 0 0 0.026105478783189973 0.029957911791005057 -0.016300456535126503 0 -0.016300456535126503 0.045802049898730969 0 0 0 0.018939990422434008 0.027537833707548406 -0.016870414971609356 0 -0.016870414971609356 0.036625198008520793 0 0 0 0.016040757929017303 0.043559467034810326 -0.025307550826339814 0 -0.025307550826339814 0.041510637613924886 0 0 0 0.021267526162183789 0.037929267493836669 -0.024070869893270223 0 -0.024070869893270223 0.020562718430373661 0 0 0 0.0146229964810526 0.030590990995590261 -0.016696731037363775 0 -0.016696731037363775 0.016269311764355199 0 0 0 0.011715075689986351 0.044023058602629846 -0.020748537721444665 0 -0.020748537721444665 0.020260990685113608 0 0 0 0.016071012321935856 0.044911658745037941 -0.020353428294608296 0 -0.020353428294608296 0.022946767337833185 0 0 0 0.016964606520717795 0.037481726988894765 -0.015591318583818445 0 -0.015591318583818445 0.0049974544828633172 0 0 0 0.010619795367939541 0.056456835747623349 -0.0107411287634545 0 -0.0107411287634545 0.013142126419468658 0 0 0 0.017399740541773012 0.050934634113573019 -0.014660170467108713 0 -0.014660170467108713 0.0032905524460593583 0 0 0 0.013556296639908094 0.055625308499181333 -0.01928360999672632 0 -0.01928360999672632 0.0090402642834551128 0 0 0 0.016166393195659157 0.071438582199833595 -0.035471735393236711 0 -0.035471735393236711 0.037279312073680265 0 0 0 0.027179473568378458 0.033322583238228551 -0.019444520386828399 0 -0.019444520386828399 0.061793006403759634 0 0 0 0.023778897410497032 0.047871524992194839 -0.02946348162578601 0 -0.02946348162578601 0.045046547204645182 0 0 0 0.023229518049210002 0.048122554753796093 -0.032183035769956077 0 -0.032183035769956077 0.053510580410034023 0 0 0 0.025408283790957536 0.052932763477155365 -0.039600296196760476 0 -0.039600296196760476 0.085698972338092899 0 0 0 0.034657933953812052 0.036120295133045655 -0.036103605601248284 0 -0.036103605601248284 0.11537926555555375 0 0 0 0.037874890172149844 0.063045117549900651 -0.033794585385657584 0 -0.033794585385657584 0.1123388462344149 0 0 0 0.043845990946078876 0.086065077540960433 -0.011664822994053912 0 -0.011664822994053912 0.30257621697770976 0 0 0 0.097160323629667561 0.068202132669468563 -0.013735005516161108 0 -0.013735005516161108 -0.010093519305894527 0 0 0 0.01452715334089353 0.092841919069386603 -0.05412476733739742 0 -0.05412476733739742 0.069860473716591681 0 0 0 0.040675598196494578 0.15883174253037119 0.10262712965925308 0 0.10262712965925308 0.20719778144022816 0 0 0 0.09150738099264985 0.092612606780705098 -0.076866113256449639 0 -0.076866113256449639 0.13197660040417503 0 0 0 0.056147301796220003 0.0056918670625153494 0.00092003232955145155 0 0.00092003232955145155 0.015418124566562417 0 0 0 0.0052774979072694409 0.24907963476792094 0.091760016484228338 0 0.091760016484228338 0.062201534851672902 0 0 0 0.077820292404898517 0.13191027505320446 0.025966773901766271 0 0.025966773901766271 0.036675486013147074 0 0 0 0.04214644026658787 0.012905434989913575 0.0022163161341978771 0 0.0022163161341978771 0.038918307781507885 0 0 0 0.012955935692855363 0.013501435353971553 0.001705623196008671 0 0.001705623196008671 0.038901851127301101 0 0 0 0.013100821620318115 0.11706954923135975 0.021355844166318749 0 0.021355844166318749 0.034763127737774874 0 0 0 0.037958169242283665 0.018163237636069994 0.003085914973416857 0 0.003085914973416857 0.05427880632433961 0 0 0 0.018110510990102399 0.018963422777275751 0.0070248550857376357 0 0.0070248550857376357 0.044668057878730683 0 0 0 0.015907870164001636 0.091821257879671769 0.016836056153755996 0 0.016836056153755996 0.021954789498533023 0 0 0 0.028444011844551198 0.058597789053360327 -0.018877993912135085 0 -0.018877993912135085 -0.00060177850842985103 0 0 0 0.014499002636232633 0.049571420222759587 0.0036599892784802135 0 0.0036599892784802135 0.02520262947645191 0 0 0 0.018693512424802869 0.050646378173531958 -0.0078883179315177299 0 -0.0078883179315177299 0.023255517355209532 0 0 0 0.018475473882185414 0.054235779877439098 -0.0025965018106461901 0 -0.0025965018106461901 0.012215549473220344 0 0 0 0.016612832337664862 0.040005397257582065 0.0056869577710750019 0 0.0056869577710750019 0.020783729641592585 0 0 0 0.015197281724793649 0.045829688031556515 0.0039263779966923484 0 0.0039263779966923484 0.042302390236808707 0 0 0 0.022033019567091278 0.034512733391615286 0.0082388598657497647 0 0.0082388598657497647 0.051517010099792204 0 0 0 0.021507435872851866 0.051153157166153956 0.0015055577295817191 0 0.0015055577295817191 0.020068449491075002 0 0 0 0.017805401664307191 0.082366613688164669 0.015261196667786234 0 0.015261196667786234 0.026259535350337426 0 0 0 0.027156537259625413 0.088637554606033508 0.010182319214618651 0 0.010182319214618651 0.047988465351664678 0 0 0 0.034156504989424685 0.095242243739270371 0.0090531170960117535 0 0.0090531170960117535 0.046764696916144599 0 0 0 0.035501735163853687 0.022459424849717431 0.0036664659624635783 0 0.0036664659624635783 0.067281355550736124 0 0 0 0.022435195100113388 0.082691614122883172 0.006967305228829046 0 0.006967305228829046 0.051160015723104468 0 0 0 0.033462907461497049 0.084464591377134912 0.0073436266526130112 0 0.0073436266526130112 0.050376279016552949 0 0 0 0.033710217598421854 0.074618880840179869 0.011907612893691466 0 0.011907612893691466 0.049207886138426415 0 0 0 0.030956691744651765 0.080546274938396278 0.0053835771844693873 0 0.0053835771844693873 0.06114576453532905 0 0 0 0.035423009868431388 0.046115356807583691 0.0088371289276515785 0 0.0088371289276515785 0.066478932037315142 0 0 0 0.028148572211224743 0.026521740558358885 0.0040673762817803084 0 0.0040673762817803084 0.07943774647665669 0 0 0 0.026489871758753891 0.077448822455211785 0.005640198041483524 0 0.005640198041483524 0.061782913148160201 0 0 0 0.034807933900843024 0.043857668698247615 0.0076721800594640455 0 0.0076721800594640455 0.035226279563988161 0 0 0 0.019770987065558937 0.045410775572682999 0.0069711703467221636 0 0.0069711703467221636 0.018166614399697134 0 0 0 0.01589434749309504 0.050818850835198867 0.0057816289375152707 0 0.0057816289375152707 0.055249468511121502 0 0 0 0.02651707983658011 0.050980878549898287 0.007541635253867196 0 0.007541635253867196 0.037145235418517469 0 0 0 0.022031528492103922 0.05083667032709685 0.010632756821792155 0 0.010632756821792155 0.042616813993948066 0 0 0 0.023363371080261236 0.044303485191692832 0.0084832079012428126 0 0.0084832079012428126 0.014776478248214764 0 0 0 0.014769990859976906 0.044557231383342152 0.0077470164779128714 0 0.0077470164779128714 0.016354302668499021 0 0 0 0.015227883512960311 0.047243402644236661 0.0050870599903885261 0 0.0050870599903885261 0.015024022596067825 0 0 0 0.015566856310076128 0.044610947054191441 -0.00029279863040726495 0 -0.00029279863040726495 0.00068005247645186451 0 0 0 0.011322749882660826 0.044458422469839221 0.0023813093938778174 0 0.0023813093938778174 0.0033824867782136225 0 0 0 0.011960227312013211 0.03801665655780407 0.0038398660311288468 0 0.0038398660311288468 6.6814564293353473e-05 0 0 0 0.0095208677805243627 0.041187305057764967 0.0015812654128797426 0 0.0015812654128797426 0.0042097166851008394 0 0 0 0.011349255435716493 0.039899500996791196 -0.0043717344066422775 0 -0.0043717344066422775 0.00038137681574423876 0 0 0 0.010070219453133883 0.043381372405130562 -0.00056871267817831805 0 -0.00056871267817831805 0.002417901550418336 0 0 0 0.011449818488887204 0.046727956018623451 -0.0073715879928268682 0 -0.0073715879928268682 0.00023166415446662647 0 0 0 0.011739905043272492 0.038741389054568573 -0.0075953474432415291 0 -0.0075953474432415291 -0.0030506556116290384 0 0 0 0.0089226833607349149 0.04629008763965195 -0.011519920906158641 0 -0.011519920906158641 0.0039315556705225019 0 0 0 0.012555410827543634 0.038715394928050123 -0.012272534235472005 0 -0.012272534235472005 0.0046371412912394952 0 0 0 0.010838134054822394 0.045959942273605406 -0.0069516096237800251 0 -0.0069516096237800251 -0.00020913183781771927 0 0 0 0.011437702608946942 0.046532030740989834 -0.00046266090606092436 0 -0.00046266090606092436 0.0028450583575766464 0 0 0 0.012344272274641611 0.051184598937561526 -0.0037600911361846123 0 -0.0037600911361846123 0.0064435448521836802 0 0 0 0.014407035947436309 -0.052261090748743189 0.0090343156074004227 0 0.0090343156074004227 0.0056330029624009903 0 0 0 -0.011657021946585688 -0.059595450943933814 0.010305386781118031 0 0.010305386781118031 0.006052886878534558 0 0 0 -0.013385641016349648 -0.039047250044541015 0.026328930179553484 0 0.026328930179553484 0.014362206976911596 0 0 0 -0.0061712607669072161 -0.089011903665947356 0.011970879294660008 0 0.011970879294660008 0.0062958990592602015 0 0 0 -0.020679001151671761 -0.098906768258766903 0.010022280097408409 0 0.010022280097408409 0.0098529360439723046 0 0 0 -0.022263458053698615 -0.056106638777421614 0.013753773222621141 0 0.013753773222621141 0.0059991414396873832 0 0 0 -0.012526874334433669 -0.056518990047189938 0.014399269662454528 0 0.014399269662454528 0.0081101089807235072 0 0 0 -0.012102220266616587 -0.037345736413910036 0.030433975243669087 0 0.030433975243669087 0.018416408935976736 0 0 0 -0.0047323318694832972 -0.018128304223482827 0.031905270526354723 0 0.031905270526354723 0.021400158880695519 0 0 0 0.00081796366430314515 -0.0024771479815595132 0.038399002205598026 0 0.038399002205598026 0.034410939105502525 0 0 0 0.0079834477809858084 -0.016492300812803284 0.026894406632041207 0 0.026894406632041207 0.01024669632152686 0 0 0 -0.001561401122818995 -0.0076892657114712992 0.037230248080960093 0 0.037230248080960093 0.017531549154375548 0 0 0 0.00246057086072618 -0.028435665070397298 0.022419653893083757 0 0.022419653893083757 0.0055314889570836634 0 0 0 -0.0057260440283284364 -0.00080350936400752637 0.032002483139645599 0 0.032002483139645599 0.0078130672126004441 0 0 0 0.0017523894621482849 0.049040790228131487 0.043104262344785926 0 0.043104262344785926 0.022036493458645112 0 0 0 0.017769320921694171 0.024665102911803904 0.03931728340114124 0 0.03931728340114124 0.017176864341888365 0 0 0 0.010460491813423012 0.063706030636448086 0.056642409649487357 0 0.056642409649487357 0.046184821700706646 0 0 0 0.027472713084288669 0.024891651341176435 0.04220975536460847 0 0.04220975536460847 0.020933831578677786 0 0 0 0.011456370729963528 -0.014230850139276829 0.027966402403806601 0 0.027966402403806601 0.023804506873771558 0 0 0 0.0023934141836236544 0.015041416980662303 0.045933624824581853 0 0.045933624824581853 0.056127843734050886 0 0 0 0.017792315178678297 0.022263169241816705 0.038854181245632502 0 0.038854181245632502 0.043089932964045286 0 0 0 0.016338275551465498 0.054738092598956567 0.058186507375902308 0 0.058186507375902308 0.093572563354079152 0 0 0 0.037077663988258847 0.071098977989637879 0.060736517420985063 0 0.060736517420985063 0.14473573479897106 0 0 0 0.053958678197152221 0.098911030933542837 0.073123473588016574 0 0.073123473588016574 0.06349398356054553 0 0 0 0.040601253623522092 0.10292180444815793 0.058479834707355294 0 0.058479834707355294 0.060124391306848657 0 0 0 0.040761548938751641 0.070842676062213727 0.041049825443239069 0 0.041049825443239069 0.025320512309042087 0 0 0 0.024040797092813926 0.083991911651999221 0.041785652450194055 0 0.041785652450194055 0.029229276221012179 0 0 0 0.02830529696825286 0.098747266636182718 0.02012927719560148 0 0.02012927719560148 0.023953727380315648 0 0 0 0.030675248504124619 0.060519194953164157 0.030847920326261768 0 0.030847920326261768 0.013973023497753534 0 0 0 0.018623054612729395 0.05662603733427074 0.02930713314090394 0 0.02930713314090394 0.0128784729267446 0 0 0 0.017376127565253974 0.077056907398472152 0.020021474795434258 0 0.020021474795434258 0.023551682932330564 0 0 0 0.025152147582700679 0.0717390525662705 0.015640565914167626 0 0.015640565914167626 0.024823864383452632 0 0 0 0.024140729237430547 0.070833006584755775 0.011491007227662109 0 0.011491007227662109 0.031383959695933772 0 0 0 0.025554241570172498 0.062917449819139368 0.013182225398502556 0 0.013182225398502556 0.028746474643647942 0 0 0 0.022915981115696798 0.054525497093109387 0.019206112821589238 0 0.019206112821589238 0.016802303261145068 0 0 0 0.017831950088563642 0.053964945138790021 0.023570104331746805 0 0.023570104331746805 0.012375983441923477 0 0 0 0.016585232145178375 0.032341171555201102 0.019747690493482351 0 0.019747690493482351 0.009648970553495978 0 0 0 0.010497535527174244 0.033447415999939362 0.018248635663477897 0 0.018248635663477897 0.010262188136349215 0 0 0 0.010927401034072165 0.031103452583583158 0.021227335095004407 0 0.021227335095004407 0.0084926942065037814 0 0 0 0.0098990366975215682 0.0093983603375989988 0.025545151679043587 0 0.025545151679043587 0.0045191739287853139 0 0 0 0.0034793835665959394 0.035112290801693091 0.029903173098122793 0 0.029903173098122793 0.010840075074951994 0 0 0 0.011488091469161299 0.042757994520320225 0.024342961168132504 0 0.024342961168132504 0.0085519373665656762 0 0 0 0.01282748297172151 0.019223012873459622 0.030207531833189416 0 0.030207531833189416 0.0063184129423912161 0 0 0 0.006385356453962765 0.01231420805670283 0.035895993780220681 0 0.035895993780220681 0.010793599517482044 0 0 0 0.0057769518935462394 -0.0061716565941983825 0.023686768286867055 0 0.023686768286867055 0.0031601293575844736 0 0 0 -0.00075288180915344949 -0.012082393257389981 0.027641458899522631 0 0.027641458899522631 0.010456274823584924 0 0 0 -0.00040652960845129205 -0.008453651031556042 0.016966433436073319 0 0.016966433436073319 0.0059138434323195987 0 0 0 -0.00063495189980922184 -0.0086273088988380042 0.024863266341876189 0 0.024863266341876189 0.0031281863629084583 0 0 0 -0.001374780633982331 0.011402832006679242 0.022790904879751439 0 0.022790904879751439 0.005684779201325707 0 0 0 0.0042719028020010708 0.011556658693760297 0.019820338391068448 0 0.019820338391068448 0.0017788289563874793 0 0 0 0.003333871912537284 0.00082289557990040951 0.014880912815861347 0 0.014880912815861347 0.00454887132421887 0 0 0 0.0013429417260298476 -0.0062148393005621028 0.01554634964237056 0 0.01554634964237056 0.0022029596973975885 0 0 0 -0.0010029699007910731 -0.014068868408384283 0.017903929132868979 0 0.017903929132868979 0.0050227324795391048 0 0 0 -0.0022615339822114056 -0.023961829052158823 0.0058646312156127589 0 0.0058646312156127589 0.0035934055112170071 0 0 0 -0.0050921058852353429 -0.0088539332178031449 0.005374823592915412 0 0.005374823592915412 0.0057054146384356574 0 0 0 -0.00078712964484184411 -0.019628976883691973 0.0074647434197061546 0 0.0074647434197061546 0.0063130449173736114 0 0 0 -0.0033289829915796321 -0.041989888782389739 0.0077122407513106062 0 0.0077122407513106062 0.0036295526534619871 0 0 0 -0.0095900840322319381 -0.032794621846523819 0.01972951954124591 0 0.01972951954124591 0.003664543568776546 0 0 0 -0.0072825195694368183 -0.029125768156891496 0.00983589924659381 0 0.00983589924659381 0.0053876823590504053 0 0 0 -0.0059345214494602727 0.0030739961993055537 0.003564287025943802 0 0.003564287025943802 0.005726212657341273 0 0 0 0.0022000522141618212 -0.0032330262801504306 0.0022587195048420217 0 0.0022587195048420217 0.0035352463408986345 0 0 0 7.5555015187078745e-05 0.0051610659447780538 0.0058832633525316425 0 0.0058832633525316425 0.0052489161084805502 0 0 0 0.0026024955133148175 -0.0080253285027289678 0.0031196972065636874 0 0.0031196972065636874 0.0043716813238989793 0 0 0 -0.00091341179470738609 -0.0048990334002400049 0.002791144956273639 0 0.002791144956273639 0.0045597687818808019 0 0 0 -8.4816154590217074e-05 -0.015321478716848302 0.0042377754671724284 0 0.0042377754671724284 0.0034897724363789351 0 0 0 -0.0029579265701176194 -0.012320134512695535 0.0098226926814405369 0 0.0098226926814405369 0.0023177668174065857 0 0 0 -0.0025005919238223484 -0.0061916852525607524 0.0064450650779838137 0 0.0064450650779838137 0.0033262891864440647 0 0 0 -0.00071634901652917193 0.0012082421042405311 0.011987557211670552 0 0.011987557211670552 0.0026936908338823784 0 0 0 0.00097548323453078289 0.0030511273481876877 0.0088940728795241508 0 0.0088940728795241508 0.0063779903629637147 0 0 0 0.0023572794277877396 0.010016520794430717 0.012133614902606338 0 0.012133614902606338 0.0048775751962657488 0 0 0 0.0037235239976740608 0.015537479436038781 0.0084840669248875678 0 0.0084840669248875678 0.007509246607628306 0 0 0 0.0057616815109167163 0.014126203789385894 0.0055087972034504329 0 0.0055087972034504329 0.0082976076055634174 0 0 0 0.0056059528487373278 0.0040183823668225038 0.0082991102090745894 0 0.0082991102090745894 0.0050493231510828629 0 0 0 0.0022669263794761196 0.012074771979744464 0.0066650463590627318 0 0.0066650463590627318 0.0078880705100789483 0 0 0 0.0049907106224555686 0.029118632916967035 0.0053081830191821222 0 0.0053081830191821222 0.014805421221208537 0 0 0 0.010981013534543616 0.031282857544883802 0.0067041620813268477 0 0.0067041620813268477 0.020790684409579541 0 0 0 0.013018385488616002 0.042265821474834597 0.0061784796054440427 0 0.0061784796054440427 0.021223273279736166 0 0 0 0.015872273688642746 0.015021527022235359 0.0096624876135201904 0 0.0096624876135201904 0.008645843654088381 0 0 0 0.0059168426690809905 0.014802221349090372 0.014254989442464819 0 0.014254989442464819 0.0048758633779528715 0 0 0 0.0049195211817607554 0.0284049094896201 0.0095413778981080499 0 0.0095413778981080499 0.010940918053086834 0 0 0 0.0098364568856767476 0.029107875846505316 0.012630587627845302 0 0.012630587627845302 0.0096342329829579576 0 0 0 0.0096855272073657073 0.039997567761203445 0.013545722871539434 0 0.013545722871539434 0.015099723894909989 0 0 0 0.013774322914028359 0.029549196836492042 0.010218685450738202 0 0.010218685450738202 0.015113935656970057 0 0 0 0.01116578312336558 0.051783921723752568 0.0069615894619730057 0 0.0069615894619730057 0.02918157919804365 0 0 0 0.02024137523044911 0.052640622394587444 0.01194870401847252 0 0.01194870401847252 0.029656268860712487 0 0 0 0.020574222813825038 0.048666441568065322 0.012820158837355988 0 0.012820158837355988 0.017895939441499031 0 0 0 0.016640595252390922 0.058483606615736483 0.010209080299249607 0 0.010209080299249607 0.03255057467668343 0 0 0 0.022758545323105062 0.067528972986084179 0.0052393797411599552 0 0.0052393797411599552 0.051633516387058265 0 0 0 0.029790622343285555 0.059185321388166789 0.0028078182033831611 0 0.0028078182033831611 0.041780639837315281 0 0 0 0.025241490306370684 0.066515339530969886 0.007888488558092932 0 0.007888488558092932 0.055113522564573358 0 0 0 0.030407215523885922 0.045837677225907855 0.0099052004099717816 0 0.0099052004099717816 0.027482450224462385 0 0 0 0.018330031862592897 0.05340308778548078 0.0064968596266616885 0 0.0064968596266616885 0.041577793866293455 0 0 0 0.023745220412943607 0.069639400406723784 -0.0022373256426120314 0 -0.0022373256426120314 0.06007331072639488 0 0 0 0.032428177783279333 0.057319596276674156 -0.0034539267787665473 0 -0.0034539267787665473 0.057166276732279364 0 0 0 0.028621468252238325 0.077126792329477389 0.0028999332007171308 0 0.0028999332007171308 0.061726178184557945 0 0 0 0.034713242628508834 0.069467807794912684 0.00087153499014958058 0 0.00087153499014958058 0.058356888486144065 0 0 0 0.031956174070264076 0.081018300303808743 -0.0059811602025874322 0 -0.0059811602025874322 0.082274283453093844 0 0 0 0.040823145939225647 0.093860744511740229 0.0036587160549386155 0 0.0036587160549386155 0.084843317853298572 0 0 0 0.044676015591259471 0.069510858184592683 -0.0073560774992205147 0 -0.0073560774992205147 0.065397624137190746 0 0 0 0.033727120580445691 0.053298687672083789 -0.0011085295626762637 0 -0.0011085295626762637 0.057026350848810914 0 0 0 0.027581259630223842 0.025001330686385215 0.0029180846921794713 0 0.0029180846921794713 0.015764775552892907 0 0 0 0.010191526559819808 0.029882850612447331 0.00070344347309214683 0 0.00070344347309214683 0.030409335331128773 0 0 0 0.015073046485893915 0.044211711210759619 -0.0029505210214305078 0 -0.0029505210214305078 0.030521030617570943 0 0 0 0.018683185457082807 0.027363705295557095 0.0031536406711017151 0 0.0031536406711017151 0.015475524376092675 0 0 0 0.010709807417912609 0.048507291896460192 -0.00035672498790489948 0 -0.00035672498790489948 0.033100878687731594 0 0 0 0.020402042646048058 0.031969870898710617 0.0023128303968349417 0 0.0023128303968349417 0.029024563178577267 0 0 0 0.015248608519321971 0.046726621224810749 0.0010199451133945381 0 0.0010199451133945381 0.029734700122259206 0 0 0 0.019115330336767933 0.016357038330721996 0.0036856976361301363 0 0.0036856976361301363 0.012899332628032667 0 0 0 0.007314092739688749 0.0044284480059539888 0.0024440910914478309 0 0.0024440910914478309 0.0064616365956764454 0 0 0 0.0027225211504073865 0.012224528190996509 0.002245930908840954 0 0.002245930908840954 0.0083199503969533239 0 0 0 0.0051361196469874582 0.0062315634753251636 0.0039573952308031846 0 0.0039573952308031846 0.0074670578247837405 0 0 0 0.0034246553250274481 0.014050034465306283 0.0022411712247105697 0 0.0022411712247105697 0.014249757417968745 0 0 0 0.0070749479708185348 0.015629807531195583 -0.00074497693735908754 0 -0.00074497693735908754 0.010527618523028082 0 0 0 0.0065393565135560827 0.0095485872336773525 0.00047178324626240276 0 0.00047178324626240276 0.003715106506118282 0 0 0 0.0033159234349491307 0.013768493792821968 0.0023941022616716934 0 0.0023941022616716934 0.0071416523112848296 0 0 0 0.0052275365260268103 0.0086482179000826331 0.0026670764989396023 0 0.0026670764989396023 0.0074994475816230199 0 0 0 0.0040369163704261357 0.0061906402733926669 0.0012943060679277973 0 0.0012943060679277973 0.004859342114349019 0 0 0 0.0027624955969356435 0.0057006920404562289 0.0012514812226802619 0 0.0012514812226802619 0.0046904560328620004 0 0 0 0.0025977870183294949 0.0049117540479830524 0.00079709735214450461 0 0.00079709735214450461 0.0035408501445610696 0 0 0 0.0021131510481360305 0.0028902161403239202 0.0010875178779659045 0 0.0010875178779659045 0.003706686401360848 0 0 0 0.0016492256354212476 0.0046660443198320856 0.0018167291799384699 0 0.0018167291799384699 0.0049933630489871206 0 0 0 0.0024148518422044685 0.00078788947492580697 0.0020467784244366793 0 0.0020467784244366793 0.0054010248927411908 0 0 0 0.0015472285919164719 0.0038532911430094463 0.0012202304057093993 0 0.0012202304057093993 0.004901991397662675 0 0 0 0.0021888206351682038 -0.0030771994114600076 0.001488293952491837 0 0.001488293952491837 0.0041471477865639983 0 0 0 0.00026748709377599766 0.040187468047574837 0.011471877539825967 0 0.011471877539825967 0.016605927701794809 0 0 0 0.014198348937342453 0.053119028818645331 0.011864806645804332 0 0.011864806645804332 0.038592106102242174 0 0 0 0.022927783730221918 0.052004330842435026 0.01475669808063132 0 0.01475669808063132 0.033972318841327065 0 0 0 0.021494162420940571 0.047463578234527598 0.015713829961979647 0 0.015713829961979647 0.029727437552277469 0 0 0 0.019297753946701246 0.038280584542903631 0.012665699691439741 0 0.012665699691439741 0.015016744739262504 0 0 0 0.013324332320541575 0.031312461143156056 0.0090321409649795417 0 0.0090321409649795417 0.0080251488067978327 0 0 0 0.0098344024874884584 0.032518327489381327 0.0062845747661447945 0 0.0062845747661447945 0.0082248514259015693 0 0 0 0.010185794728820696 0.037439456720081254 0.0083744842614326687 0 0.0083744842614326687 0.0099744533779565769 0 0 0 0.011853477524509437 0.033004356361153842 0.005835040196466551 0 0.005835040196466551 0.0035755370066676839 0 0 0 0.0091449733419553536 0.034516593729017546 0.0025137874958032769 0 0.0025137874958032769 0.0026946929485785059 0 0 0 0.0093028216693989904 0.043576363332844842 0.0073396012197315952 0 0.0073396012197315952 0.012023768019388426 0 0 0 0.013900032838058324 0.04221218879415653 0.010551361087240974 0 0.010551361087240974 0.011326379036825651 0 0 0 0.013384641957745524 0.038646984689823749 0.010141016432519662 0 0.010141016432519662 0.015243676634923736 0 0 0 0.013472665331186823 0.047932809111789709 0.011374967448387126 0 0.011374967448387126 0.028447551267161253 0 0 0 0.019095090094737699 0.047523912090237069 0.012393862172005915 0 0.012393862172005915 0.026029898516673755 0 0 0 0.018388452651727671 0.054064906769366317 0.0092110794850013278 0 0.0092110794850013278 0.045155877635507935 0 0 0 0.024805196101218535 0.058477538660003797 0.0057894902414944716 0 0.0057894902414944716 0.06939227163363193 0 0 0 0.031967452573408883 0.069684105639801347 0.0060994983436481742 0 0.0060994983436481742 0.080881573886447733 0 0 0 0.037641419881562277 0.059497987077149705 0.013403686034569234 0 0.013403686034569234 0.052961750513223327 0 0 0 0.028114934397593244 0.075865972834187445 0.0095015793309738417 0 0.0095015793309738417 0.05967878893673817 0 0 0 0.033886190442731279 0.084069731689188965 0.0031001182035547276 0 0.0031001182035547276 0.078806604545778036 0 0 0 0.040719084058741473 0.062263697034622145 0.0089378888557427871 0 0.0089378888557427871 0.07596615672327095 0 0 0 0.034557463439473357 0.030426024570352758 0.0043374197176644091 0 0.0043374197176644091 0.091133081505339497 0 0 0 0.030389776518923065 0.070797298893650495 0.0051401187674122717 0 0.0051401187674122717 0.052373955948025852 0 0 0 0.030792813710418976 0.080152302146128562 0.0058894310934467509 0 0.0058894310934467509 0.08161684466482777 0 0 0 0.040442286702738972 0.07890382590575995 0.00036704727349157196 0 0.00036704727349157196 0.080513115081381592 0 0 0 0.039854235246785441 0.034306699691088488 0.0044858462741265851 0 0.0044858462741265851 0.10278049615116649 0 0 0 0.034271798960563746 0.079047126495652209 0.0098097248712157303 0 0.0098097248712157303 0.087338762430406502 0 0 0 0.041596472231514581 0.089800567324575975 0.0039101295398440428 0 0.0039101295398440428 0.085302146687346259 0 0 0 0.043775678502980475 0.03832852187143608 0.0045371874556477737 0 0.0045371874556477737 0.1146954474417952 0 0 0 0.038255992328307814 0.082574541077033575 0.0068085981373176008 0 0.0068085981373176008 0.080306932944797738 0 0 0 0.040720368505457821 0.060416517397923641 0.011259124712086836 0 0.011259124712086836 0.057193983988736874 0 0 0 0.029402625346665157 0.078725730394638704 0.0086109952183029415 0 0.0086109952183029415 0.090733686625911192 0 0 0 0.042364854255137419 0.062625157615894989 0.017355340654169257 0 0.017355340654169257 0.054167158661495352 0 0 0 0.029198079069347627 0.072039395767667325 0.012241790711221279 0 0.012241790711221279 0.060652854285738772 0 0 0 0.033173062513351448 0.079473469895893489 0.017366771376459103 0 0.017366771376459103 0.072262060776885018 0 0 0 0.037933882668194585 0.06792308776592737 0.010940832022540647 0 0.010940832022540647 0.058006911908009412 0 0 0 0.031482499918484258 0.097127212507113286 0.011332949459399999 0 0.011332949459399999 0.094621686676670869 0 0 0 0.047937224795946004 0.095379535794368864 0.0061847506697660301 0 0.0061847506697660301 0.10261290979700244 0 0 0 0.049498111397842826 0.089880239351365201 0.006302844288876619 0 0.006302844288876619 0.078086250806159857 0 0 0 0.041991622539381282 0.096989106839785677 -0.0016348953884923745 0 -0.0016348953884923745 0.1006745446665489 0 0 0 0.049415912876583867 0.042352219543418196 0.0044719584134680791 0 0.0044719584134680791 0.12718924238574283 0 0 0 0.042385365482290251 0.11923185733318248 0.0096417923730436339 0 0.0096417923730436339 0.10740412224266283 0 0 0 0.056658994893961312 0.1095386752910646 0.0040813295834192242 0 0.0040813295834192242 0.1048605392577637 0 0 0 0.053599803637207247 0.091157350596836384 -0.0027042030745778045 0 -0.0027042030745778045 0.098634209613162049 0 0 0 0.047447890052499719 0.10646559345859907 0.0067817204876030601 0 0.0067817204876030601 0.10630259526448915 0 0 0 0.053192047180771973 0.047644817649880225 0.0044349054543055301 0 0.0044349054543055301 0.14126531290800642 0 0 0 0.047227532639471673 0.12942468969739629 -0.00063681844421581424 0 -0.00063681844421581424 0.11889060805884011 0 0 0 0.062078824439059321 0.10864821575610661 -0.004930991717074118 0 -0.004930991717074118 0.11669250912999463 0 0 0 0.056335181221525366 0.070943790962285896 0.016532902620999795 0 0.016532902620999795 0.057983527863795237 0 0 0 0.032231829706520276 0.10282610914590376 0.011875279650122195 0 0.011875279650122195 0.11117016997094653 0 0 0 0.053499069779212566 0.12863364158224486 0.0023132960780594888 0 0.0023132960780594888 0.11420034716772554 0 0 0 0.060708497187492577 0.10364387153434709 0.010437946511446194 0 0.010437946511446194 0.10675038103013323 0 0 0 0.05259856314112013 0.085776016459578108 0.0015988778303449858 0 0.0015988778303449858 0.062321556148502988 0 0 0 0.037024393152020302 0.039668605690294137 0.0091326403074704354 0 0.0091326403074704354 0.020418237715749743 0 0 0 0.015021710851510953 0.063211429410781117 0.010570608078545429 0 0.010570608078545429 0.046948848269210974 0 0 0 0.027540069419998092 0.049940269371671037 0.0061144908649489408 0 0.0061144908649489408 0.0072302852789157823 0 0 0 0.014292638662646739 0.055625921184635274 0.0085583988130221444 0 0.0085583988130221444 0.043307164169743562 0 0 0 0.024733271338594653 0.046879042968863305 0.011205440681272397 0 0.011205440681272397 0.017745533224511778 0 0 0 0.016156144048343757 0.041371244459090184 0.014040998615762884 0 0.014040998615762884 0.019025496162692002 0 0 0 0.01509918515544556 0.046114365036711784 0.011598528855898904 0 0.011598528855898904 0.02981638137680824 0 0 0 0.018982686603380032 0.057265192775468238 0.017683244664522021 0 0.017683244664522021 0.040369485580232123 0 0 0 0.024408669588925125 0.032517028458123487 0.010249481306643382 0 0.010249481306643382 0.0081660645085511741 0 0 0 0.010170773241668707 0.033255401829972227 0.010441934098330607 0 0.010441934098330607 0.013399479704253715 0 0 0 0.011663720383556484 0.033168874340211985 0.011489753661956342 0 0.011489753661956342 0.0098264209687272119 0 0 0 0.010748823827234771 0.036439711196479645 0.0090739947751553585 0 0.0090739947751553585 0.018022819264178327 0 0 0 0.013615632615164568 0.027224788854258053 0.0068279483013559128 0 0.0068279483013559128 0.0046828739720541357 0 0 0 0.0079769157065780472 0.030524333905374831 0.0033126520876763377 0 0.0033126520876763377 -0.0014371668917501079 0 0 0 0.0072717917534062121 0.029348605875677503 0.0055210106644232315 0 0.0055210106644232315 -0.018476119890133536 0 0 0 0.0027181214963860056 0.027142146682398283 0.002135517172420609 0 0.002135517172420609 -0.0077402880701746835 0 0 0 0.0048504646530558859 0.027698834729979915 6.0824920046831377e-05 0 6.0824920046831377e-05 -0.027486815579921386 0 0 0 5.3004787514632223e-05 0.031509557350114903 0.0048530879910249139 0 0.0048530879910249139 -0.0070183503309000361 0 0 0 0.0061228017548036195 0.025269733930093324 0.0017346153086179594 0 0.0017346153086179594 -0.00033099608653569534 0 0 0 0.0062346844608894558 0.02800909151040136 0.0058444573990250603 0 0.0058444573990250603 -0.0058277506828885162 0 0 0 0.0055453352068782075 0.060862537701410896 -0.0083631309176431436 0 -0.0083631309176431436 0.01716595632028195 0 0 0 0.019507123505423246 0.051352162886742145 3.0542293250057639e-08 0 3.0542293250057639e-08 -0.011470843846174568 0 0 0 0.0099703297601418245 0.036740033857693422 -0.002819105913102523 0 -0.002819105913102523 0.0032027398254353967 0 0 0 0.0099856934207821768 0.050602443342781578 0.00014395394654505289 0 0.00014395394654505289 0.028385567150585711 0 0 0 0.019747002623341836 0.044488482435405097 -0.00047625650693688959 0 -0.00047625650693688959 0.0073115877315443889 0 0 0 0.012950017541737302 0.038205390237778178 0.0012262415934197746 0 0.0012262415934197746 0.012340460121384567 0 0 0 0.012636462589790717 0.040805924276720917 0.00067258038291337363 0 0.00067258038291337363 0.022731466861033445 0 0 0 0.015884347784438535 0.053503906438384125 -0.0046807680354561398 0 -0.0046807680354561398 0.025736565334201988 0 0 0 0.019810117943146549 0.03382769624444544 0.004803755317626196 0 0.004803755317626196 0.0046818001628614048 0 0 0 0.0096273741018267217 0.032770006718463141 0.0018010447867511381 0 0.0018010447867511381 0.012122135147350499 0 0 0 0.011223035466453424 0.026104901143521597 0.0056322994179655306 0 0.0056322994179655306 0.0063140216854788989 0 0 0 0.0081047307072500963 0.032236939226076122 0.0062296362301567099 0 0.0062296362301567099 0.0083635407214948665 0 0 0 0.010150119986892692 0.031047443972541888 0.0053912769834716379 0 0.0053912769834716379 0.0057018455575343907 0 0 0 0.0091873223825191253 0.033630899772812306 0.0037053457364422948 0 0.0037053457364422948 0.0096125997158493792 0 0 0 0.010810874872165366 0.031802880343775819 0.0026284861983783825 0 0.0026284861983783825 0.0091966837324243267 0 0 0 0.01024989101905005 0.029302424397278815 0.0047394102644038871 0 0.0047394102644038871 0.008354358962174846 0 0 0 0.0094141958398634151 0.035843876303215588 0.00042530861540557297 0 0.00042530861540557297 0.012139508033791657 0 0 0 0.011995846084251832 0.032790313998001919 0.0010116776324689131 0 0.0010116776324689131 0.012714805495530723 0 0 0 0.011376279873383188 0.042808943241232564 -0.0032682690227232025 0 -0.0032682690227232025 0.022190595835080068 0 0 0 0.016249884769078172 0.046546941804540609 -0.0019731109717777279 0 -0.0019731109717777279 0.03243307081986857 0 0 0 0.019745003156102336 0.036781763475454254 0.00040134457109758381 0 0.00040134457109758381 0.01559941638503981 0 0 0 0.013095294965123516 0.033492143688258952 -0.00067680157053329193 0 -0.00067680157053329193 0.0098669382014867635 0 0 0 0.010839770472436422 0.037780939070067902 -0.0032275892224870872 0 -0.0032275892224870872 0.017638017312216134 0 0 0 0.013854739095571049 0.040419257429162969 -0.0030824299372416118 0 -0.0030824299372416118 0.025922721057482834 0 0 0 0.016585494621661451 0.035711739100335038 -0.0035664613356432284 0 -0.0035664613356432284 0.011507383422382264 0 0 0 0.011804780630679298 0.032122137444416804 -0.0020512677654153585 0 -0.0020512677654153585 0.0020640892286888368 0 0 0 0.0085465566682764449 0.03662596443395582 -6.1697737815502585e-05 0 -6.1697737815502585e-05 0.0050603422509558696 0 0 0 0.010421576671227888 0.031979449350685502 0.0024436718912335259 0 0.0024436718912335259 0.0037099512189920913 0 0 0 0.0089223501424194329 0.035369237495691735 0.0042524590562534326 0 0.0042524590562534326 0.0071748829685657559 0 0 0 0.010636030116064317 0.035265558178879261 0.00054958371806074213 0 0.00054958371806074213 0.0094520926592595589 0 0 0 0.011179412709534695 0.057701482145335659 -0.010437291124551717 0 -0.010437291124551717 0.053984641825059354 0 0 0 0.027921530992598642 0.019719685002618385 -0.0061820936051051635 0 -0.0061820936051051635 0.059022581310470265 0 0 0 0.019685566578272161 0.066204801063531993 -0.0086504638193983796 0 -0.0086504638193983796 0.048017222377992219 0 0 0 0.028555505860381025 0.056595811699305582 -0.0079343345480271388 0 -0.0079343345480271388 0.047881202199449774 0 0 0 0.026119253474688853 0.046410169757823749 -0.0056932022750268013 0 -0.0056932022750268013 0.044379809482738009 0 0 0 0.022697494810140467 0.040400673307280276 -0.0077203998617039193 0 -0.0077203998617039193 0.024124958482442838 0 0 0 0.016131407947430752 0.042354933005600531 -0.0065101592246171458 0 -0.0065101592246171458 0.028264055575971003 0 0 0 0.017654747145392891 0.046738888792882211 -0.0041390577099854609 0 -0.0041390577099854609 0.027404486190577837 0 0 0 0.018535843745865005 0.058773856640994895 -0.0030965508205069159 0 -0.0030965508205069159 0.053462335198514566 0 0 0 0.028059047959877362 0.053092119491623069 -0.0066187903040297452 0 -0.0066187903040297452 0.044746464314413648 0 0 0 0.024459645951509179 0.063365781241844582 -0.0034176877836592512 0 -0.0034176877836592512 0.044686465159540556 0 0 0 0.027013061600346361 0.055989581221543572 -0.0073233072350950557 0 -0.0073233072350950557 0.039302822877017252 0 0 0 0.02382310102464022 0.071276657087206208 -0.0058409566178174721 0 -0.0058409566178174721 0.066957302297061538 0 0 0 0.03455848984606702 0.089690388436812124 -0.0075070124653852655 0 -0.0075070124653852655 0.069445248002205473 0 0 0 0.039783909109754406 0.063173673674114528 -0.0069582639210786779 0 -0.0069582639210786779 0.056409854706118701 0 0 0 0.029895882095058224 0.065331497561059826 -0.013901202472074936 0 -0.013901202472074936 0.056635385848325059 0 0 0 0.030491720852346194 0.028112048930968712 -0.0062290767283355777 0 -0.0062290767283355777 0.084116707947587091 0 0 0 0.028057189219638956 0.072342534588943325 -0.0078210112357257333 0 -0.0078210112357257333 0.060769571909124798 0 0 0 0.033278026624516982 0.07223237002560623 -0.0093939935799019544 0 -0.0093939935799019544 0.057787415563477218 0 0 0 0.032504946397270973 0.023677748206630302 -0.0062811218450954057 0 -0.0062811218450954057 0.070886725969946177 0 0 0 0.023641118544144114 0.084733391908195732 -0.0046273240504052238 0 -0.0046273240504052238 0.074012623362117669 0 0 0 0.039686503817578433 0.033033364867845694 -0.006030192111952948 0 -0.006030192111952948 0.098989524921703043 0 0 0 0.033005722447387184 0.11303506630537483 -0.006520494647363595 0 -0.006520494647363595 0.082170889376146361 0 0 0 0.048801488920380304 0.097884790433821992 -0.0095702985322060341 0 -0.0095702985322060341 0.078681208015431103 0 0 0 0.044141499612313242 0.082969875019361816 -0.0037558382981563998 0 -0.0037558382981563998 0.072160233899377424 0 0 0 0.038782527229684671 0.060998471351700841 -0.00090663105422081336 0 -0.00090663105422081336 0.043147233640992669 0 0 0 0.026036426248173379 0.076030154764703817 -0.0085424610021559155 0 -0.0085424610021559155 0.051583125733861257 0 0 0 0.031903320124641366 0.086801306275646667 -0.0032089070786602836 0 -0.0032089070786602836 0.078056455869512598 0 0 0 0.041214440536289726 0.08574349502889124 0.00059366382488984515 0 0.00059366382488984515 0.056435924249361669 0 0 0 0.035544854819563224 0.06974244301855359 -0.0084668488319252222 0 -0.0084668488319252222 0.03396826786862428 0 0 0 0.02592767772179444 0.10034640684110413 -0.0091070550395466326 0 -0.0091070550395466326 0.083294853932740498 0 0 0 0.045910315193461171 0.12897510569324006 -0.0015035682465974753 0 -0.0015035682465974753 0.088155558907220349 0 0 0 0.054282666150115115 0.10333278555003522 -0.01136720018353686 0 -0.01136720018353686 0.07436262169651453 0 0 0 0.044423851811637438 0.085312773443458445 0.0030546650379391083 0 0.0030546650379391083 0.038672084667963666 0 0 0 0.030996214527855566 0.10210409241145946 -0.010876704984237984 0 -0.010876704984237984 0.080385871717867374 0 0 0 0.045622491032331847 0.038938384762666742 -0.0059066781031189303 0 -0.0059066781031189303 0.11606943587960455 0 0 0 0.038751955160567828 0.13121291277432112 -0.0023974334565770965 0 -0.0023974334565770965 0.094479730024143116 0 0 0 0.056423160699616171 0.10940264682633505 0.0040352226739537311 0 0.0040352226739537311 0.086435430432969085 0 0 0 0.048959519314826005 0.091869850250414581 -0.0060806034053171309 0 -0.0060806034053171309 0.058356775445959186 0 0 0 0.037556656424093088 0.069531702941104889 0.004629482010139796 0 0.004629482010139796 0.037967518790070098 0 0 0 0.026874805432793858 0.065949000357582443 -0.0066689952155498666 0 -0.0066689952155498666 0.03949805161699782 0 0 0 0.026361762993645232 0.079558535298228483 0.00098184217433572307 0 0.00098184217433572307 0.055517898326203574 0 0 0 0.033769108406108084 0.048756351158536271 -0.0021129993094211041 0 -0.0021129993094211041 0.032563203585099565 0 0 0 0.020329888685909125 0.025289985440379414 -0.0054225365128063308 0 -0.0054225365128063308 0.013569575681219082 0 0 0 0.009714890280399846 0.023738005730445932 -0.0074896161741011789 0 -0.0074896161741011789 0.0089136365515170013 0 0 0 0.0081629105704907889 0.042035713074472847 -0.0014754221514859805 0 -0.0014754221514859805 0.012424433338793062 0 0 0 0.013615036603316755 0.043877983168064461 -0.009527470339943056 0 -0.009527470339943056 0.02163572059488883 0 0 0 0.01637842594073835 0.02365679571492818 -0.011931387208178879 0 -0.011931387208178879 0.01791513431802727 0 0 0 0.010392982508238835 0.020964847187629587 -0.011407886971073866 0 -0.011407886971073866 0.010011876624262506 0 0 0 0.0077441809529730232 0.034140300728472017 -0.011664942373524556 0 -0.011664942373524556 0.019484505960662757 0 0 0 0.013406201672283735 0.056361749535851338 -0.0084308758939612982 0 -0.0084308758939612982 0.040925306434092951 0 0 0 0.024321763992486048 0.069836638619158453 -0.012207278741796862 0 -0.012207278741796862 0.044233863000087581 0 0 0 0.02851762540481162 0.050177856302231982 -0.0051560781353369167 0 -0.0051560781353369167 0.03568784289115956 0 0 0 0.02146642479834765 0.0038880406516806909 -0.0026754774995745301 0 -0.0026754774995745301 0.0049075474356254922 0 0 0 0.002198897021826518 0.0022090537314762848 -0.001502587747191217 0 -0.001502587747191217 0.002717262034343193 0 0 0 0.0012315789414545364 0.0040930592126734262 -0.0010971518063447316 0 -0.0010971518063447316 0.0029643957539760581 0 0 0 0.0017643637416623157 0.0055151543611184906 -0.0019022631463619932 0 -0.0019022631463619932 0.0030689237890677568 0 0 0 0.0021460195375466729 0.0030284765710772987 -0.003352308661373149 0 -0.003352308661373149 0.0024995838090586808 0 0 0 0.0013820150950341059 0.0069383315474440543 -0.005400282331125883 0 -0.005400282331125883 0.0027934426740419127 0 0 0 0.0024329435553713807 0.013513766141418415 -0.004466285134634651 0 -0.004466285134634651 0.0036235224213778672 0 0 0 0.0042843221406987375 0.0076594717400542134 -0.0020674504519353487 0 -0.0020674504519353487 -1.0502848541982246e-06 0 0 0 0.0019146053637999483 0.012978327893798448 -0.0027406851530384913 0 -0.0027406851530384913 0.00070940991571264822 0 0 0 0.0034219344523779963 0.0095482923510738504 -0.0084304519118179044 0 -0.0084304519118179044 0.0050405982046947129 0 0 0 0.0036472226389420714 0.0055303565028162471 -0.011795477736896265 0 -0.011795477736896265 0.0071284980077451765 0 0 0 0.0031647136276404253 -0.0052863146658945967 -0.0079644056911504224 0 -0.0079644056911504224 0.0030461908487502964 0 0 0 -0.00056003095428593802 0.0087407422440690663 -0.0071480728574155883 0 -0.0071480728574155883 0.0042950841437132681 0 0 0 0.0032589565969456391 0.0029772704474221312 -0.0083289837436132386 0 -0.0083289837436132386 0.0058326206066836583 0 0 0 0.0022024727635264751 -0.00097118038577816146 -0.0035244990506339002 0 -0.0035244990506339002 0.0030939659946488951 0 0 0 0.0005306964022177979 -0.010694565367724842 -0.0038055731676802651 0 -0.0038055731676802651 0.0022536125994094781 0 0 0 -0.0021102381920787851 -0.0023186594958918283 -0.0035364632820905628 0 -0.0035364632820905628 0.0050457130485033197 0 0 0 0.00068176338815295612 -0.020648033750296557 -0.0045171248669725328 0 -0.0045171248669725328 0.0043847889687729236 0 0 0 -0.0040658111953807419 -0.0035013249496299581 -0.0066059850836444056 0 -0.0066059850836444056 0.0054132554792674092 0 0 0 0.00047798263240939054 -0.0056085399959533433 -0.0097673515222778118 0 -0.0097673515222778118 0.0042154823331044255 0 0 0 -0.00034826441571234046 -0.01575157349381015 -0.0047017353177754018 0 -0.0047017353177754018 0.00098662677258876119 0 0 0 -0.0036912366803054375 -0.006733947426667497 -0.011266915457973536 0 -0.011266915457973536 0.0041901842298360248 0 0 0 -0.00063594079920775703 0.0050290103278721743 -0.012691168937034703 0 -0.012691168937034703 0.0072256026414230234 0 0 0 0.0030636532423238272 0.0025529523190178649 -0.015390430826144941 0 -0.015390430826144941 0.0063343030274567447 0 0 0 0.0022218138366185691 0.0037576899492970384 -0.014471810603994439 0 -0.014471810603994439 0.008914916226587799 0 0 0 0.0031681515439712093 -0.0069662252705073868 -0.011692484497396127 0 -0.011692484497396127 0.0034308377316847327 0 0 0 -0.00088384688470577455 -0.007307096871780161 -0.014172344722975017 0 -0.014172344722975017 0.0054992289079606599 0 0 0 -0.00045196699095489956 0.0027555914530256187 -0.017342970259937696 0 -0.017342970259937696 0.0093127514868220906 0 0 0 0.0030170857349619551 -0.012327348401915184 -0.014151036067269307 0 -0.014151036067269307 0.0037253555968235208 0 0 0 -0.0021504982012728879 -0.018465713904985415 -0.0086570431032823025 0 -0.0086570431032823025 0.0036072083875755556 0 0 0 -0.003714626379352437 -0.021800166745211735 -0.0068894192772220864 0 -0.0068894192772220864 0.00094258856203199848 0 0 0 -0.0052143945457949203 -0.023337849635950647 -0.0073668424927299525 0 -0.0073668424927299525 0.0045944378592479573 0 0 0 -0.0046858529441756724 -0.033634688874994156 -0.0038359305630074614 0 -0.0038359305630074614 0.0016353113457836521 0 0 0 -0.0079998443823024457 -0.020112188675083131 -0.0036551856465455862 0 -0.0036551856465455862 0.003109588796853302 0 0 0 -0.0042506499695574851 0.042045830584905741 -0.015284184968202497 0 -0.015284184968202497 0.026234561882279461 0 0 0 0.017070098116796273 0.0325945581036996 -0.013923766866562604 0 -0.013923766866562604 0.026482303985976507 0 0 0 0.014769215522418944 0.046566189864282292 -0.015537830395293717 0 -0.015537830395293717 0.040517876494336802 0 0 0 0.021771016589654857 0.041585998261832957 -0.016751002934510262 0 -0.016751002934510262 0.02878350138329866 0 0 0 0.017592374911282849 0.01751208981624619 -0.014729174172159798 0 -0.014729174172159798 0.015071433874325635 0 0 0 0.0081458809226429008 0.015861173131034301 -0.014593540033975949 0 -0.014593540033975949 0.010033665619592957 0 0 0 0.0064737096876569256 0.028647282288379317 -0.016852313709200872 0 -0.016852313709200872 0.016259990399412505 0 0 0 0.011226818171948039 0.023027563498379533 -0.01835043395746927 0 -0.01835043395746927 0.013697776731449007 0 0 0 0.0091813350574571073 0.013622517648648663 -0.016367915709143643 0 -0.016367915709143643 0.013646828091503971 0 0 0 0.0068173364350382626 0.011479913704664113 -0.015167899891575298 0 -0.015167899891575298 0.0081152012314205102 0 0 0 0.0048987787340212807 0.011400074028263416 -0.014593999374571398 0 -0.014593999374571398 0.01120235505849268 0 0 0 0.0056506072716890204 0.036243584189019629 -0.016461519837863259 0 -0.016461519837863259 0.021053562606695664 0 0 0 0.014324286698928823 0.02627373813778433 -0.01565583193368085 0 -0.01565583193368085 0.023120639705452195 0 0 0 0.012348594460809048 0.052064962766710465 -0.011778931874975543 0 -0.011778931874975543 0.035687504923193281 0 0 0 0.021938116922475936 0.039469321268795765 -0.015180135172306541 0 -0.015180135172306541 0.031356266017753098 0 0 0 0.017706396821637327 0.047212238707189824 -0.011862202281910039 0 -0.011862202281910039 0.028956871469783541 0 0 0 0.019042277544243369 0.035166739302649186 -0.017415481603306082 0 -0.017415481603306082 0.021191104628830448 0 0 0 0.014089460982869895 0.037082866790998203 -0.013361356844317052 0 -0.013361356844317052 0.021829813791615527 0 0 0 0.014728170145653419 0.043278879482753996 -0.015522437078775764 0 -0.015522437078775764 0.021463719196891606 0 0 0 0.016185649669911484 0.023693810478366495 -0.01909966978856914 0 -0.01909966978856914 0.01421321225758021 0 0 0 0.0094767556839866485 0.027108023765213124 -0.014466890332991977 0 -0.014466890332991977 0.0199632777400649 0 0 0 0.011767825376319568 0.021964013785395697 -0.019412001712915378 0 -0.019412001712915378 0.012354221592763004 0 0 0 0.0085795588445397586 0.0059406638651581245 -0.018922341436810597 0 -0.018922341436810597 0.007906559886645681 0 0 0 0.0034618059379509791 0.0024216359307640545 -0.014443712105237122 0 -0.014443712105237122 0.006509674294446155 0 0 0 0.0022328275563026079 0.020895424471116513 -0.015373006392636501 0 -0.015373006392636501 0.012395216694503504 0 0 0 0.0083226602914049756 0.0096336061881454604 -0.020778094539656955 0 -0.020778094539656955 0.007669041715997027 0 0 0 0.0043256619760356774 0.017865819735568389 -0.015531742735005682 0 -0.015531742735005682 0.0095456790560148885 0 0 0 0.0068528746978958055 0.0016549971020763388 -0.016716236192980877 0 -0.016716236192980877 0.0051108250472421402 0 0 0 0.0016914555373296891 0.0027860161172128528 -0.019243807031936788 0 -0.019243807031936788 0.0099943030735046845 0 0 0 0.0031950797976793011 0.037943571031048423 -0.017379359842153858 0 -0.017379359842153858 0.014266370043704291 0 0 0 0.013052485268688269 0.040789624737918917 -0.014003295905003148 0 -0.014003295905003148 0.019483473642805782 0 0 0 0.015068274595181175 0.037284133724280411 -0.013826493244230506 0 -0.013826493244230506 0.022503752723159076 0 0 0 0.014946971611860094 0.019051544622743888 -0.019472385753612154 0 -0.019472385753612154 0.012279925911354961 0 0 0 0.0078328676335247538 0.034705064705058852 -0.01558915707857933 0 -0.01558915707857933 0.015472147073739118 0 0 0 0.012544302944699548 -0.034853317622270674 -0.0074122780597283278 0 -0.0074122780597283278 0.0032520381067451254 0 0 0 -0.0079003198788814011 -0.041847402089680304 -0.0039722626393885463 0 -0.0039722626393885463 0.00075638714677348992 0 0 0 -0.010272753735726677 -0.033816504300126345 -0.0039898920383059089 0 -0.0039898920383059089 0.00065230346437053499 0 0 0 -0.0082910502089390062 -0.04536273100658228 -0.0049675921354144408 0 -0.0049675921354144408 0.0032499783475952171 0 0 0 -0.010528188164746877 -0.024236438703417906 -0.0063642785921174116 0 -0.0063642785921174116 2.5196390298631854e-06 0 0 0 -0.0060584797660971357 -0.012299894809224499 -0.012172037192110352 0 -0.012172037192110352 0.0039454989840055354 0 0 0 -0.0020885989563046992 -0.024194170758925493 -0.012576648006790737 0 -0.012576648006790737 0.003766124682633043 0 0 0 -0.0051070115190731125 -0.0074749821373295833 -0.013031946268739159 0 -0.013031946268739159 0.0036183723526297396 0 0 0 -0.0009641524461750095 -0.010635962838081214 -0.017888933883447755 0 -0.017888933883447755 0.0058771304297611238 0 0 0 -0.0011897081020799671 -0.014124594371726085 -0.015753094747822383 0 -0.015753094747822383 0.0048035783711111169 0 0 0 -0.0023302540001537975 -0.01100815825222356 -0.013465036971704203 0 -0.013465036971704203 0.0055891046808703854 0 0 0 -0.0013547633928382933 -0.012253628019850138 -0.018188197672494397 0 -0.018188197672494397 0.0079074073665756917 0 0 0 -0.0010865551633185144 -0.019622293732373116 -0.010638113965303897 0 -0.010638113965303897 0.0033718968263807339 0 0 0 -0.0040625992264981502 -0.02907242791422604 -0.013476911168189748 0 -0.013476911168189748 0.0041528684544575034 0 0 0 -0.0062298898649421064 -0.028474036190765911 -0.010958812408062457 0 -0.010958812408062457 0.0024601629581967321 0 0 0 -0.0065034683081423295 -0.029098101678938337 -0.011765779028290374 0 -0.011765779028290374 0.0034136140639200452 0 0 0 -0.0064211219037545453 -0.044804768446729676 -0.0070990456851394157 0 -0.0070990456851394157 0.002363612870592835 0 0 0 -0.010610288894034176 -0.042999171094801336 -0.0041907370811506972 0 -0.0041907370811506972 0.0018362363660645586 0 0 0 -0.010290733682184139 -0.054515833003100256 -0.0067633113890723795 0 -0.0067633113890723795 0.002240763517406652 0 0 0 -0.013068767371423373 -0.076835019761653939 -0.0043020641826019557 0 -0.0043020641826019557 0.0020620120161989886 0 0 0 -0.018693251936363703 -0.063309180719949176 -0.0050302407579919106 0 -0.0050302407579919106 0.0021810863437579098 0 0 0 -0.015282023594047844 -0.05182429566768923 -0.00250769844281995 0 -0.00250769844281995 0.0012590983043730963 0 0 0 -0.012641299340828999 -0.045063493513444686 -0.011791258341514663 0 -0.011791258341514663 0.0050336728988676915 0 0 0 -0.010007455153644262 -0.035238832689802713 -0.0079567151423881599 0 -0.0079567151423881599 0.0020567441070936665 0 0 0 -0.0082955221456772477 -0.016063549490707651 -0.01195036475764677 0 -0.01195036475764677 0.0051182326205128081 0 0 0 -0.0027363292175487386 -0.01983066779778242 -0.016502431165909215 0 -0.016502431165909215 0.0084891328810738909 0 0 0 -0.0028353837291770212 -0.0177581711809221 -0.014830068991435907 0 -0.014830068991435907 0.014261610561221882 0 0 0 -0.000874140154925096 -0.02592892378005697 -0.0086149571756601317 0 -0.0086149571756601317 0.0019607524429617884 0 0 0 -0.0059920428342737503 -0.026625884620858492 -0.010679190720497229 0 -0.010679190720497229 0.0066073053030159534 0 0 0 -0.0050046448294606416 -0.039773017633862762 -0.001865212737670166 0 -0.001865212737670166 0.0078490923708860461 0 0 0 -0.0079809813157441789 -0.03998367361965724 -0.01077831215113309 0 -0.01077831215113309 0.0064290677863130252 0 0 0 -0.0083886514583360328 -0.053198229758527171 -0.0055379927294329917 0 -0.0055379927294329917 0.0021792197528230917 0 0 0 -0.012754752501426048 -0.049320838270988272 -0.0024603362300945064 0 -0.0024603362300945064 0.0020021971425744634 0 0 0 -0.011829660282103424 -0.075748220377172881 -0.0025999070840362348 0 -0.0025999070840362348 0.002566706798322993 0 0 0 -0.018295378394712514 0.021228750270599787 -0.016324842662327615 0 -0.016324842662327615 0.01464608961306605 0 0 0 0.0089687099709165087 0.045264883238178816 -0.02799567803410484 0 -0.02799567803410484 0.026926695994944183 0 0 0 0.018047894808280729 0.020087498099890633 -0.020761116032602778 0 -0.020761116032602778 0.015160337959809755 0 0 0 0.008811959014925097 0.017048512374190306 -0.016115442198754312 0 -0.016115442198754312 0.0086721089503227766 0 0 0 0.0064301553311282844 -0.0028152482074953744 -0.016915190153704796 0 -0.016915190153704796 0.0074960167781557008 0 0 0 0.0011701921426650885 -0.0012236874574543533 -0.017538566739030564 0 -0.017538566739030564 0.012436521015833701 0 0 0 0.0028032083895947746 0.014502675520271263 -0.022225403978300279 0 -0.022225403978300279 0.016559718692016778 0 0 0 0.0077655985530719895 -0.0013754563317898982 -0.011843906040916563 0 -0.011843906040916563 0.016575653498548948 0 0 0 0.0038000492916897832 -0.022950896781275543 -0.0071739255153054626 0 -0.0071739255153054626 0.0071297838193163932 0 0 0 -0.0039552782404897457 -0.015307825907659695 -0.0045417254146742636 0 -0.0045417254146742636 0.011532926357761208 0 0 0 -0.0009437248874746007 -0.0063175681586123134 -0.016625589381157851 0 -0.016625589381157851 0.018786901233046271 0 0 0 0.0031173332686084687 0.018210237777438527 -0.018968987605227611 0 -0.018968987605227611 0.023958039445756141 0 0 0 0.010542069305798631 0.019297460292738794 -0.017053704574781905 0 -0.017053704574781905 0.025572417660203905 0 0 0 0.011217469488235682 0.03950168608744109 -0.024174780676688074 0 -0.024174780676688074 0.037223423139006451 0 0 0 0.019181277306611871 0.053223065038533621 -0.037622486951231521 0 -0.037622486951231521 0.074103387403031157 0 0 0 0.031831613110391205 -0.017704383483649125 0.0088586335024418011 0 0.0088586335024418011 0.040405547915229267 0 0 0 0.005675291107895053 0.11752572938103359 -0.037578270384230825 0 -0.037578270384230825 0.034951616422294718 0 0 0 0.038119336450832098 0.0028854698843844883 -0.00132960094614372 0 -0.00132960094614372 0.0084678468463584549 0 0 0 0.0028383291826857351 0.060746375702357427 -0.018573383828151768 0 -0.018573383828151768 0.0092712928821923613 0 0 0 0.017504417146137471 0.055226188810553245 -0.014552682786940233 0 -0.014552682786940233 0.018105799859639671 0 0 0 0.01833299716754816 0.0071341115963695087 -0.0033709252864295579 0 -0.0033709252864295579 0.021328068472799271 0 0 0 0.0071155450172921946 0.080648854248506263 -0.010640588701949061 0 -0.010640588701949061 0.020695690564926261 0 0 0 0.025336136203358117 0.010051376212835274 -0.0046291794848864337 0 -0.0046291794848864337 0.030056237178946808 0 0 0 0.010026903347945523 0.058697543882778092 -0.009415388806933378 0 -0.009415388806933378 0.022600654594330361 0 0 0 0.020324549619277127 0.054472503222292717 -0.015810533858534537 0 -0.015810533858534537 0.016200218847418291 0 0 0 0.017668180517427717 0.019860964426791805 -0.0097465947550746668 0 -0.0097465947550746668 0.013790646577063415 0 0 0 0.0084129027509638188 0.01202597211338273 -0.012058350283037936 0 -0.012058350283037936 0.022317844326919967 0 0 0 0.0085859541100756637 0.021545489311986202 -0.0093511969139547929 0 -0.0093511969139547929 0.019025543937628023 0 0 0 0.010142758312403563 -0.001916661294359967 -0.012373668026825067 0 -0.012373668026825067 0.014340066577698984 0 0 0 0.0031058513208347543 0.019845708790878894 -0.0037841818368797193 0 -0.0037841818368797193 0.028721068697384528 0 0 0 0.012141694372065873 0.015836622858951904 -0.0022528250392171156 0 -0.0022528250392171156 0.0083448739188564103 0 0 0 0.0060453741944520994 0.004280419100964588 -0.0061187676337263047 0 -0.0061187676337263047 0.074365751016697276 0 0 0 0.01966154252941547 0.01439962542009128 0.00054010897309096639 0 0.00054010897309096639 0.027801803545803833 0 0 0 0.010550357241473782 0.022035229267001105 -0.0065921105585096951 0 -0.0065921105585096951 0.011225526445018785 0 0 0 0.0083151889280049657 0.026680792101635192 -0.008224837934780696 0 -0.008224837934780696 0.026772840675914039 0 0 0 0.013363408194387302 0.019483183933545395 -0.01015914730463624 0 -0.01015914730463624 0.02596186988519919 0 0 0 0.011361263454686132 0.023924289743076962 -0.013893384386416158 0 -0.013893384386416158 0.027544477661245542 0 0 0 0.012867191851080623 0.024790510158151882 -0.012544467003078312 0 -0.012544467003078312 0.039980509938521452 0 0 0 0.016192755024168337 0.034015867082153109 -0.018461292415147004 0 -0.018461292415147004 0.029601602978736347 0 0 0 0.015904367515222367 0.037312005744505349 -0.017344926179793385 0 -0.017344926179793385 0.015893661003457273 0 0 0 0.013301416686990634 0.030318293768526086 -0.013059934266783327 0 -0.013059934266783327 0.014659063763768188 0 0 0 0.011244339383073551 0.032326411075120159 -0.013455448288132534 0 -0.013455448288132534 0.013215842561059565 0 0 0 0.011385563409044952 0.029282072832543582 -0.012155679684185912 0 -0.012155679684185912 0.012034621635777454 0 0 0 0.010329173617080245 0.031037020821307632 -0.013693077755438682 0 -0.013693077755438682 0.0055283017256930744 0 0 0 0.0091413306367501834 0.024108983970131847 -0.011700366840555476 0 -0.011700366840555476 0.013852347371795616 0 0 0 0.009490332835481851 0.030169895887544734 -0.011711404331233202 0 -0.011711404331233202 0.0077723140187382911 0 0 0 0.0094855524765707633 0.03028151380837775 -0.012277977106930377 0 -0.012277977106930377 0.0084653688335112887 0 0 0 0.0096867206604722561 0.027138067908992744 -0.012041620707777353 0 -0.012041620707777353 0.010640192664271464 0 0 0 0.0094445651433160555 0.031904625874603861 -0.011007983732840093 0 -0.011007983732840093 0.0043743777365527481 0 0 0 0.0090697509027891712 0.032160252435799175 -0.010538099622490429 0 -0.010538099622490429 0.008775320336694814 0 0 0 0.010233893193123539 0.031486628831026861 -0.010926759391716792 0 -0.010926759391716792 0.012642239735750127 0 0 0 0.01103221714169425 0.037693898221823105 -0.011683563811083382 0 -0.011683563811083382 0.0026460422012716811 0 0 0 0.010084985105773714 0.034603859584878577 -0.012653628212246248 0 -0.012653628212246248 0.0064502529859128202 0 0 0 0.010263528142697823 0.03395487026392438 -0.012114194848361765 0 -0.012114194848361765 0.0057169835685064174 0 0 0 0.0099179634581076925 0.036426466747931985 -0.0094925255810958536 0 -0.0094925255810958536 0.0032716710744418731 0 0 0 0.0099245344555934645 0.037059544999727342 -0.0098505478791047485 0 -0.0098505478791047485 0.0021555581825372233 0 0 0 0.0098037757955661414 0.034567386558154056 -0.0022472779879706695 0 -0.0022472779879706695 -0.0032463470205347789 0 0 0 0.0078302598844048332 0.033056140213382726 -0.0063862353361646418 0 -0.0063862353361646418 0.0012713643125196183 0 0 0 0.0085818761314756103 0.037819197878059735 -0.0042600325509023762 0 -0.0042600325509023762 0.0045449710125248233 0 0 0 0.010591042222646146 0.033445780867494945 -0.0087448708036433759 0 -0.0087448708036433759 0.016621790684203885 0 0 0 0.012516892887924708 0.03550631857585726 -0.0070907999456499005 0 -0.0070907999456499005 0.0097111755165464331 0 0 0 0.01130437352310093 0.031750860471901371 -0.0088661903362536043 0 -0.0088661903362536043 0.0079630691178900204 0 0 0 0.0099284823974478166 0.033643219797719337 -0.005036312957923561 0 -0.005036312957923561 0.0080952738502654831 0 0 0 0.010434623411996219 0.035000793658361132 -0.0072896002763225831 0 -0.0072896002763225831 0.015782253830691095 0 0 0 0.012695761872263039 0.037393656577235312 -0.0055217489029889232 0 -0.0055217489029889232 0.01927093004956415 0 0 0 0.014166146656699852 0.038951367138905235 -0.0072071918108029959 0 -0.0072071918108029959 0.028843891053408233 0 0 0 0.016948814548078395 0.034621833778966604 -0.0096383493206782522 0 -0.0096383493206782522 0.024762369123298766 0 0 0 0.014846050725566384 0.034277210020694726 -0.0082343324319341105 0 -0.0082343324319341105 0.020551722775010772 0 0 0 0.013707233198926388 0.0387229433938798 -0.0064686551121868642 0 -0.0064686551121868642 0.037480046168767212 0 0 0 0.01905074739066176 0.061338611868776455 -0.0083213528448046747 0 -0.0083213528448046747 0.038574231185580565 0 0 0 0.024978210763589331 0.016169935947202955 -0.0059235150386455961 0 -0.0059235150386455961 0.048392966523917787 0 0 0 0.016140725617780183 0.044018487421694369 -0.0082966739573963888 0 -0.0082966739573963888 0.040271132928444447 0 0 0 0.021072405087534718 0.051040730240693666 -0.011611878014948646 0 -0.011611878014948646 0.042383676671033488 0 0 0 0.023356101727931788 0.05022142655472478 -0.01015925396000561 0 -0.01015925396000561 0.034880343758018406 0 0 0 0.02127544257818581 0.062188996229204041 -0.0071927522903950658 0 -0.0071927522903950658 0.031504972173001633 0 0 0 0.023423492100551446 0.029158212728296599 -0.0095261632740592239 0 -0.0095261632740592239 0.032536820332422819 0 0 0 0.015423758265179853 0.012984917512939053 -0.0054410061688388934 0 -0.0054410061688388934 0.038852790332759228 0 0 0 0.01295942696142457 0.053210705753425347 -0.0089677185100782084 0 -0.0089677185100782084 0.02938566065599324 0 0 0 0.020649091602354619 0.048249093598169146 -0.013754285519816167 0 -0.013754285519816167 0.018523142762198797 0 0 0 0.016693059090091944 0.065724386664904988 -0.0076642461790396021 0 -0.0076642461790396021 0.02484246417487912 0 0 0 0.022641712709946082 0.023623465042614936 -0.010023037556162698 0 -0.010023037556162698 0.023419563155552992 0 0 0 0.011760757049541964 0.026689261884046613 -0.012521015361549009 0 -0.012521015361549009 0.013590011185682538 0 0 0 0.010069818267432258 0.027325927263548593 -0.011492173672093875 0 -0.011492173672093875 0.017048631385456633 0 0 0 0.011093639662251291 0.031874702987925774 -0.0088505635667754934 0 -0.0088505635667754934 0.025849870024683752 0 0 0 0.014431143253152368 
</DataArray>
<DataArray type="Float64" Name="von_mises_stress" format="ascii">
0.025186541981498452 0.019560865591029604 0.029514423965480641 0.023577843594236578 0.019379820338140688 0.019387636191033165 0.025297781732211574 0.025594742088894736 0.025473932437185431 0.02247635802835099 0.029523929590237068 0.02405076107513416 0.034649125736314956 0.028716553836080808 0.038951461153004449 0.032875555657852822 0.032098890893285617 0.031648078712324695 0.016278529862123817 0.020604799885166645 0.016306544495512623 0.022144811122579166 0.020462661864045214 0.019382631525847717 0.017019156051804499 0.023440416738957703 0.021238433071745024 0.01966216170276381 0.01555569931796426 0.017117237389231665 0.019073208852346719 0.013838250120281056 0.016911390705775842 0.012630717173061513 0.019031645861578839 0.024369256001193041 0.022044270086362141 0.016809566528605026 0.022897653203116659 0.026129210062155878 0.019552277630453387 0.021191709718562279 0.017606275573077597 0.01327953373462807 0.02020836723328721 0.014240898868052453 0.0127594962537767 0.015421401758126781 0.038022197958554105 0.033692987027806987 0.046837895157187434 0.034354715430382911 0.02830498211503673 0.028842966987807795 0.030398487381756018 0.032228820907857905 0.024816819351997522 0.034327029075331549 0.026890146925094185 0.032967822748277698 0.042638941568631204 0.040694857982025781 0.03969484751040047 0.052828698056416115 0.055934357694954577 0.042523981750232864 0.047645573641711493 0.065412598892527374 0.051409958202964151 0.047463099983818015 0.053556998162040362 0.071337035972778129 0.031981554187502259 0.030323940192657377 0.037895402055827081 0.038915052569628052 0.030408597705113245 0.04661876610677252 0.036066291096495721 0.036026276194408846 0.028394153873692918 0.021947625304982024 0.020059921939257232 0.019464748403287768 0.017191653307878377 0.028155446345604587 0.010869544518263451 0.016271558028500558 0.012668800918010769 0.006024075065442021 0.01382120712163681 0.013293403544477275 0.0082212169439536357 0.0073899535110794794 0.022509604287609487 0.023398960450670522 0.01291658775743024 0.014924228120933887 0.023011775773260291 0.028077100681719445 0.024449567227816382 0.023265214832919868 0.01260978465261651 0.017874975106074588 0.0076096948794105506 0.012981929484263698 0.011539589388818546 0.022763037043053505 0.025880647944571022 0.023805291739811014 0.028088336739582238 0.030319621818848601 0.013714310314595793 0.024482576124071353 0.02523336825925834 0.032659987601483711 0.038693299929831518 0.041536369222094027 0.051515522010941325 0.053403261590623606 0.076648411116798112 0.0567223933107395 0.055273613345182548 0.056803015238387607 0.049960711243594753 0.07575301871828477 0.057108146577206885 0.041613332979014837 0.033993968138298351 0.041923694736504098 0.025191283125356848 0.021685041414742812 0.020152728248576779 0.022081556717534357 0.022195757556001925 0.025697567041306754 0.030304045309176717 0.027828534073256968 0.02774982514427244 0.025030053407404225 0.025668395150804567 0.028758336023873746 0.028910635989960111 0.031774772848383842 0.033014185966051296 0.070008828955708577 0.045746585420881072 0.044117528059047437 0.033567308264421038 0.034134591147026168 0.028204724000756628 0.044932918288725796 0.026810505595214529 0.017067490913277215 0.025797849654567048 0.011862754768407717 0.017354651583884866 0.031404684993130948 0.026859588227901878 0.025548504267373415 0.01568755307323905 0.019732635017158922 0.014670664848446438 0.0098515073721717489 0.011092246020760553 0.0093662875214784447 0.013271960055375887 0.0089568737895415907 0.0097704204029112496 0.0097582805008070619 0.011992287602289676 0.0098306073677223698 0.013819347746120409 0.011181390473195796 0.011403747451580945 0.01097633339665932 0.010425533565843562 0.010143110112910522 0.014614876076680048 0.014660854324374036 0.014995636398991357 0.01107835125549606 0.010532187848037297 0.010271261523493658 0.013301551934108806 0.011227032188043159 0.013574892942466759 0.01796167551586457 0.015478346324300426 0.022384099972202226 0.014499170703231807 0.018612463387508021 0.011644089023606245 0.014937361327700857 0.014703040872199315 0.015931477196117195 0.016000730799415323 0.021639445166740233 0.023489057917386588 0.022496348509597062 0.019733275419927161 0.019599884433052772 0.014174735572030191 0.017878242206123333 0.020020696168915872 0.018596938658405931 0.022063446363404456 0.023287876020967782 0.019490233689588771 0.025915855122833786 0.025100892390171891 0.027593851714816545 0.025665922197214714 0.023861387075592478 0.012200771249359432 0.014098580354412735 0.013622104468180081 0.016253770148147668 0.013396125206586914 0.015196238595693119 0.014507701367466777 0.016431603161502079 0.018736360939679394 0.016249850543200765 0.020981980407734451 0.016711712134338096 0.016409989507029279 0.013745503430489889 0.016227100358560301 0.013972153401148119 0.015827088278390158 0.017796834709514282 0.014901108884493471 0.013556672767480732 0.017628367425237604 0.015399376091098068 0.018527474307078622 0.016861010594214149 0.017698137152003156 0.021487856386173516 0.016637288234504461 0.019642093042484567 0.016187019968079464 0.019758497833685489 0.015706661568623475 0.020176508806028805 0.023966486103546621 0.025734792663651342 0.022748440878745342 0.023587446015417075 0.01968781202318903 0.021392737602707733 0.017103914321994186 0.019451576017650306 0.017982616066085061 0.0200406492095569 0.021955075820478929 0.022673774626783778 0.020263200144704289 0.01821722466273102 0.021370815865866973 0.018806750387158414 0.02116905388014427 0.024126338627837828 0.024985485193334663 0.026358330119744349 0.025650179501501585 0.027883033729362662 0.027677154106372056 0.029137918482387826 0.028005246066087602 0.026543432213626934 0.024912270395570896 0.018514034478786266 0.018848245860926656 0.021045324472048921 0.01850730905646036 0.023429497070776979 0.022195093568872143 0.018266412000143454 0.023489497501809606 0.024600484566656724 0.024855734641279627 0.022238033519997327 0.022669282741091441 0.020403492084902934 0.024530783916054837 0.029038608703286516 0.027301773363510317 0.029070041376773475 0.029594638999034625 0.03412888606046266 0.028661837876311304 0.026624974239233868 0.027459141853500547 0.026426865150602781 0.023953420148906328 0.031213883966862914 0.030592235490804198 0.028738548456986857 0.034616705007356488 0.030268309924157879 0.029454756276531678 0.030453953446240207 0.033839620572731315 0.035405611844331407 0.036661047889360809 0.031677186786975849 0.032038833809554766 0.032712267833496761 0.03114800813190851 0.029325808319636798 0.028601495496096297 0.026580619071156181 0.026152045829760395 0.025334758847979349 0.029258096861487462 0.030051887366984928 0.027723443487981957 0.030059483895775216 0.02928038065975767 0.030232740557366009 0.030924309399242501 0.030205101743882714 0.032752628991095954 0.054222427499541696 0.042556772584338022 0.044377075140113145 0.042936202684424912 0.038482601152781792 0.032555784129961809 0.025270040323426137 0.030743439671184619 0.034073006210054983 0.032263417713346683 0.025322053480272073 0.0253320113911557 0.032440786345974401 0.02778006886110454 0.037150067830474816 0.047446368524477936 0.030844277240496598 0.038429925767858635 0.02534975242104703 0.02378983807431434 0.030076899985459753 0.028019105750364554 0.026466021231949955 0.020919032009587581 0.024571050358835004 0.019244836809957633 0.026076580326899114 0.019360935890421298 0.018377815411345744 0.025535694364726847 0.024030641211539461 0.019417351731730852 0.027297294478027038 0.024736580185348661 0.027633664954942894 0.027970690679088372 0.022081655236504672 0.02996980045027382 0.023637884898392383 0.027137255802062558 0.031917167138107716 0.031018661249717663 0.03332718352298375 0.029987282180415038 0.023398758368763341 0.028161849152703637 0.037467419633739951 0.037373916279937955 0.044687256268674855 0.043694120189333746 0.041659073737934788 0.040599288786675333 0.047678613074751963 0.059451647516275526 0.065342844304184036 0.079196880105838585 0.057068495905344539 0.067283938331481191 0.046744073047468013 0.053643060500213141 0.04683586788752081 0.082846371871953553 0.1155438888483321 0.081062000295657702 0.072915312634433765 0.10354455108593114 0.089406308629149819 0.062454339171235683 0.069831798107966678 0.07264125525753963 0.048890647809362343 0.047531852297364181 0.034212459697670498 0.055489283218947756 0.05370310113855354 0.046720670026176796 0.02963570474003005 0.032123274521764701 0.032240271446355245 0.043805047683947759 0.035487590844714131 0.047432745984819183 0.039622394660079066 0.029347520901744389 0.03370596447597575 0.030020419524704446 0.022865467599215053 0.034491317033102334 0.032379674077602345 0.035732039907804901 0.023767409553763059 0.022940854293886426 0.038839434045478044 0.021845893063637111 0.03434806609948967 0.021734623239800306 0.029858699200382342 0.042501256815769398 0.01984269022235265 0.039320456023241891 0.048817908954204937 0.072554748038005656 0.065633329303129859 0.083846636007930492 0.054181464597915202 0.041659817908476809 0.0383163672544981 0.070440210551839882 0.046291017485690901 0.069555236282774963 0.030203510525137943 0.046708108652032766 0.052800297665118824 0.054252822498761476 0.063791918887936408 0.062457121281723788 0.054899602362253198 0.068488320023998656 0.045146929008343661 0.07507970155340947 0.072415159446826971 0.06137442137156239 0.08500176044139221 0.075469924430458066 0.11608617188764644 0.084691764944792747 0.12285699056970539 0.087396373603450622 0.075297725354963999 0.089979747588489756 0.03264538538012593 0.034811364964340147 0.037070768608709337 0.029611681994050922 0.025721242573906941 0.02254271253977972 0.016469683560880785 0.026739858891960875 0.019886047034808816 0.01984050244873279 0.022374973414006842 0.025351733343469598 0.028742122479278362 0.025101431128889583 0.031917607619933876 0.034006172672875104 0.030216531138235237 0.032196331943409075 0.034190876831836949 0.035406579968830051 0.034767913677551721 0.029586617877299708 0.035869111095357585 0.032693423335368968 0.035094439054976757 0.040907590071340753 0.039193781975798737 0.044441632339455729 0.035507309123426485 0.047122076895679162 0.049083313869220449 0.065194366718274471 0.060115601405965502 0.063162957641650933 0.048441907632817256 0.049576830154901226 0.0511842915163397 0.056884028498711874 0.094862181318748462 0.13993036761279284 0.15296195157513562 0.10690602550246221 0.057118949550761224 0.064921484831908446 0.12266144001290541 0.069391006666512114 0.073675872789630836 0.060027968969481475 0.036975392566347701 0.053192369314701185 0.032582284353197273 0.040783466096100646 0.028069062708251612 0.043260968615682537 0.022504638407155456 0.031601043820796287 0.047078392370981624 0.03406707932590658 0.031238311714157078 0.044505439600140112 0.036662179712137359 0.034250164398644499 0.048753177660942337 0.046671727288813247 0.033577050978698272 0.044421388919910439 0.043502026910614035 0.040416193158038266 0.045343020911682165 0.050309083289389961 0.054813774463268419 0.073407067919521382 0.048037775007785347 0.05612384637534009 0.061437752031359844 0.081920333830491826 0.10028163646506215 0.084682328096988529 0.21214650103034741 0.073311978233179226 0.10411092992333949 0.20426707833691102 0.14845827897408509 0.00043560638592660833 0.2398088154275648 0.10296305769726144 8.4963783739209158e-05 0.025772947438762062 0.088824541184876704 0.00012091586534834667 0.029944153007820832 0.072941159322358867 0.062512387888421991 0.028896581859452306 0.033025963374502157 0.040255266557994031 0.024598500306876492 0.02326015167754036 0.029716414710785833 0.032380962448519977 0.061621368589453586 0.052124534048420844 0.05717345884759796 0.00011126576568662875 0.044845038470999188 0.046579771440683607 0.043220128262775839 0.040299171095284796 0.036573666177798447 0.00012115179474826738 0.038614677262661296 0.024967070892102494 0.0309047758243776 0.028603496330266202 0.028276948213159424 0.03058902073835143 0.032983786671197682 0.031756749208354765 0.03314404760182809 0.039697663430226626 0.037755573235617283 0.034857187454018723 0.034085382955992831 0.036469262524657951 0.037290388897248977 0.043843758585124355 0.039529905574674638 0.04360559593716927 0.037951363185976549 0.043295302554486957 0.039804985747445093 0.041848524243406633 0.053800904277917005 0.061074189062840741 0.065246836912967468 0.087579734454513586 0.098328555463690084 0.060143722585573663 0.062459354517060445 0.071645922094953463 0.06501063353921073 0.074214107663808079 0.052044171369591177 0.068127789134413738 0.049051359683665391 0.055957409643963701 0.080228455649435357 0.06920277088943505 0.10300525350116901 0.07408094915075647 0.058626817319566531 0.08895128439497052 0.071562539181873275 0.11252932585671566 0.1343320198728522 0.13649309285820838 0.1153034735069849 0.084778682321660179 0.091041319015250463 0.079699996285169786 0.069473090375642907 0.065681359697199973 0.063105591438902861 0.054474148695809223 0.047077802400628553 0.043842867700445771 0.049918756672926355 0.056911779810556985 0.04082051054739206 0.039007849176921565 0.042816176721371342 0.044582791275653594 0.057065145858280195 0.053102018362712604 0.05388092649481184 0.06245537982701279 0.041821854076943617 0.051704058697096614 0.031918668948035946 0.044272788629015694 0.040013088923213487 0.035515582629577894 0.026010389512937871 0.027914466056293056 0.035215529095626232 0.026430653683060246 0.015692887450749572 0.02613409041978669 0.042793174241380218 0.047092992815806665 0.034911845936427023 0.0069446630487143089 0.0070475730340034829 0.010517468048964756 0.012053889105586099 0.0095121169211298418 0.018111403308055805 0.021363753205462632 0.013895093578597577 0.020825730952270808 0.015848387192356417 0.021802408907530872 0.017247450256531547 0.012163332081878244 0.014579498454081109 0.013089005818607355 0.018941069160080194 0.019669265395387839 0.026429936221245811 0.018589971264719559 0.026602918967671915 0.024466565110754141 0.0292715176159591 0.034714820580989778 0.024376666789620353 0.030630929964140782 0.03532454682064174 0.038472024628810247 0.036537911216397663 0.034048988754222062 0.029798935668765937 0.034767579491689245 0.029715565319790003 0.028201794795567281 0.033693265592197409 0.029240295922838312 0.037524954877016264 0.03340756167158377 0.04213116657221621 0.045794000330586733 0.036229039621801878 0.027835840219636344 0.013906772863688761 0.015129081867208178 0.022710222214808531 0.015828232925898199 0.024385308656047541 0.015971028247543033 0.024188029168438693 0.010159520182789086 0.0053322844152703559 0.007276444034164861 0.0077366678776618833 0.0080717625775646278 0.0079970247610766931 0.00609796765897507 0.008801055963066743 0.0062150092412511454 0.0037398305585568002 0.0034946452950257614 0.0027894503137605746 0.0026015376927088574 0.003976603742185409 0.005560808022148497 0.0031753191446013906 0.0067720012064829129 0.031835072156704156 0.033260754497050356 0.03686657735012256 0.036730160336362255 0.032629777192260213 0.027352849401991577 0.025785030321227319 0.030276157216466416 0.028901819599420564 0.029410455635622022 0.033188776029769759 0.035051280090627197 0.030013654807678425 0.032211000823251269 0.033844543344034993 0.030485370418249801 0.034811221792928143 0.040280585921552356 0.036898072110011365 0.040194932814557841 0.041323738767283812 0.039682413007560965 0.00012658182662911841 0.035805369890603914 0.041728208841882199 0.0398836632839452 0.00012131715039690168 0.045502989221697369 0.044467451114534269 0.00014868745140629732 0.04243908542826734 0.03539218255919406 0.046101755407436162 0.042541799194922639 0.040586652869589082 0.048813901857178425 0.037735939432953995 0.051845858043341048 0.051029968930925811 0.044573506999479762 0.049599777551932907 0.00011119031312077052 0.05995044345888708 0.054215536712386873 0.048116192480310169 0.054473746042528387 0.00043420867608339343 0.062755256464331319 0.057403220058787084 0.044551967051333248 0.05777053557684822 0.062111316503035433 0.055683918931531594 0.042320901462366306 0.027455412111819181 0.035944712380940685 0.041043240265068857 0.030745521830515866 0.035697026985640506 0.034553345264047582 0.031034468081141051 0.041808770227282695 0.029382432054786866 0.027547006532913476 0.030335344539929067 0.026206564566618004 0.024178446251262996 0.029188235588509429 0.042593851160354274 0.030818768613172846 0.047792320602950723 0.034949189449572746 0.023225976710824846 0.031494804438730858 0.044971070278468667 0.055312341360241164 0.031098532373671904 0.027571696930493151 0.034712743192939481 0.025805758069933165 0.022331236101144639 0.032193764382619519 0.028267065135069488 0.02134101127795476 0.021321684556572223 0.025434315511675774 0.025561768607805502 0.024304790264494388 0.022562517122672928 0.022025648602921111 0.023787933744262611 0.020850893263317301 0.024797997692224884 0.023472231806632968 0.022549697421737829 0.023183777856766397 0.022967558962172941 0.021475449468655008 0.024837469888316123 0.027627548319107617 0.029255974740157974 0.026398793958499471 0.027632708537277284 0.025012729697476546 0.03341832143452781 0.00011300921521989527 0.035888709946812591 0.030463662128613626 0.024809387320618111 0.025252924864949847 0.024243581340428918 0.025987251538819745 0.028935017684323102 0.02796313475975102 0.032038022775458322 0.030614842103879346 0.036202654079870202 0.045378677987930154 0.032761685119994263 0.039575144980613097 0.00012321364573057922 0.037301230611890897 0.03844223482690487 0.00011556942583171088 0.041538610081813795 0.00010200021258812358 0.056776614334811577 0.049998270102928954 0.040423256154645593 0.030320973718453725 0.041048577030410476 0.042271452176463636 0.043688605987175048 0.042978491890905433 0.050740900544659115 0.064831061588126238 0.054686114554747825 0.051188608475209459 0.05282121405751003 0.00021608995477503313 0.064906171979938185 0.053305753622557205 0.048618600269983665 0.039163436633388872 0.036784623916059862 0.039707793872549774 0.024967222382107482 0.01690020128727223 0.019993438960138547 0.029146539228070228 0.03019287321227147 0.023660369698052897 0.02324580966944946 0.027368469544678527 0.031360804206041891 0.04185611677066195 0.026420317661338354 0.0052047318112145432 0.002912696905342297 0.0027712121127114377 0.0044664581155854262 0.005986124077526341 0.01030987099535562 0.012311020085606783 0.0077782688358847014 0.01213006438504648 0.015548609943606233 0.020720300182964311 0.015578250698430074 0.013368939441275195 0.01480140416572673 0.0070669640345631356 0.013177319573132066 0.0088690476480640604 0.023403541010522784 0.013811151014319628 0.018939596522203124 0.017031432245816502 0.021696475793269585 0.02227559295503102 0.026949146547762998 0.025657061948625538 0.022181026932601978 0.026940152634758158 0.030719471340258674 0.028260344780247987 0.024577267116474132 0.023611583886625782 0.027747573520730352 0.032266395625696345 0.021507844690087801 0.034346824360247948 0.028770876180793357 0.035009802262959952 0.035696048768718264 0.026863891982686745 0.026576174144085626 0.033062465555109243 0.034055776067458951 0.029158232341855276 0.026882793046261903 0.025901990953729626 0.034513514198119655 0.029920887822013114 0.033146289785016762 0.032468326859935795 0.032166561639881144 0.035424549151896412 0.030446482314946247 0.036629760135089048 0.035378133972258891 0.02836617719451991 0.035683992783358681 0.033000722372112185 0.025364976252311107 0.028852119508875819 0.03628765113370673 0.028680752160289258 0.029156744319338464 0.034060980796124823 0.038690453631417245 0.033996968155276128 0.030996329678975303 0.035117892179857196 0.034115302022554368 0.036280218490507547 0.038912443044890742 0.031742294506360701 0.044241047613829264 0.024471669931078386 0.025431718943898937 0.032968642416704316 0.024550383825376419 0.034146287628109673 0.031915777581689175 0.02742916146095882 0.036034188165319642 0.027432876595077253 0.037571707050988293 0.033470514127528467 0.035345299833766705 0.04395918250384339 0.040819680954216654 0.05219198463259242 0.071228625946080829 0.05938165980701348 0.047875391801631216 0.048985151223492285 0.03608273370603516 0.027792482277850653 0.037769543774263559 0.037808818772789 0.029016074314278974 0.034576227347565582 0.042131130288788315 0.045105348190478851 0.050543923844246608 0.046191353071020604 0.070391194655439623 0.030206585182553369 0.054122244098933098 0.037268352777159459 0.029548137506552687 0.030650970011762521 0.032720221862084786 0.039311370325151862 0.026018387030004708 0.029132033174896422 0.024557929727898609 0.036216352951363308 0.034862309383685924 0.032060091365495799 0.046098528425077903 0.074743541947986297 0.052916993368273199 0.10393905004787535 9.0756129637235147e-05 0.05769384277040903 0.04477591954318285 8.3637343932180681e-05 0.060641343638147195 9.938619466961589e-05 0.040697358865293402 0.04648289318583191 0.019580649370071194 0.02427698535383839 0.019234676781059154 0.025829831485532067 0.015794297985376626 0.0096884951235464908 0.064675030104410752 0.015713019280716049 0.016945423809392936 0.019532816244337652 0.021683707199272866 0.027467659814421633 0.03012222339805631 0.035916864488050579 0.037729646128915474 0.028671055623682159 0.030768306611563167 0.027804305475123803 0.033676195204982468 0.024076152426658285 0.02962575628050829 0.030050571689108223 0.026987712282612025 0.031846874586575383 0.02912092869069681 0.027317124258522237 0.037848224176236137 0.034353341964563071 0.033714400979344583 0.034543463448193756 0.036068408922577525 0.033895022942801153 0.030882107886989994 0.031575218724348222 0.024461722914599221 0.027886721686946361 0.027546270511249714 0.025971096761229457 0.024446091526329934 0.023205037309594532 0.02279723581034419 0.023916633071998594 0.023077969665183492 0.022127360171475801 0.034932914613163835 0.00010955345234652741 0.025711527603639903 0.031721019110498579 0.030639637661057609 0.037549953900487681 0.022774918687051397 0.00010535446946945952 0.033066138121217566 0.038844863844452751 0.044072302558169803 0.020969750449629964 0.026465477392926356 0.024464180264398047 0.021690534366811551 
</DataArray>
<DataArray type="Float64" Name="cross_section_updated" format="ascii">
1 1 1 1 1 1 1 1 1 1 1 1 1 1 1 1 1 1 1 1 1 1 1 1 1 1 1 1 1 1 1 1 1 1 1 1 1 1 1 1 1 1 1 1 1 1 1 1 1 1 1 1 1 1 1 1 1 1 1 1 1 1 1 1 1 1 1 1 1 1 1 1 1 1 1 1 1 1 1 1 1 1 1 1 1 1 1 1 1 1 1 1 1 1 1 1 1 1 1 1 1 1 1 1 1 1 1 1 1 1 1 1 1 1 1 1 1 1 1 1 1 1 1 1 1 1 1 1 1 1 1 1 1 1 1 1 1 1 1 1 1 1 1 1 1 1 1 1 1 1 1 1 1 1 1 1 1 1 1 1 1 1 1 1 1 1 1 1 1 1 1 1 1 1 1 1 1 1 1 1 1 1 1 1 1 1 1 1 1 1 1 1 1 1 1 1 1 1 1 1 1 1 1 1 1 1 1 1 1 1 1 1 1 1 1 1 1 1 1 1 1 1 1 1 1 1 1 1 1 1 1 1 1 1 1 1 1 1 1 1 1 1 1 1 1 1 1 1 1 1 1 1 1 1 1 1 1 1 1 1 1 1 1 1 1 1 1 1 1 1 1 1 1 1 1 1 1 1 1 1 1 1 1 1 1 1 1 1 1 1 1 1 1 1 1 1 1 1 1 1 1 1 1 1 1 1 1 1 1 1 1 1 1 1 1 1 1 1 1 1 1 1 1 1 1 1 1 1 1 1 1 1 1 1 1 1 1 1 1 1 1 1 1 1 1 1 1 1 1 1 1 1 1 1 1 1 1 1 1 1 1 1 1 1 1 1 1 1 1 1 1 1 1 1 1 1 1 1 1 1 1 1 1 1 1 1 1 1 1 1 1 1 1 1 1 1 1 1 1 1 1 1 1 1 1 1 1 1 1 1 1 1 1 1 1 1 1 1 1 1 1 1 1 1 1 1 1 1 1 1 1 1 1 1 1 1 1 1 1 1 1 1 1 1 1 1 1 1 1 1 1 1 1 1 1 1 1 1 1 1 1 1 1 1 1 1 1 1 1 1 1 1 1 1 1 1 1 1 1 1 1 1 1 1 1 1 1 1 1 1 1 1 1 1 1 1 1 1 1 1 1 1 1 1 1 1 1 1 1 1 1 1 1 1 1 1 1 1 1 1 1 1 1 1 1 1 1 1 1 1 1 1 1 1 1 1 1 1 0.0020253515666482321 1 1 0.0020649059302216316 1 1 0.0020904207383355931 1 1 1 1 1 1 1 1 1 1 1 1 1 0.0021121154011265568 1 1 1 1 1 0.0021323696867947572 1 1 1 1 1 1 1 1 1 1 1 1 1 1 1 1 1 1 1 1 1 1 1 1 1 1 1 1 1 1 1 1 1 1 1 1 1 1 1 1 1 1 1 1 1 1 1 1 1 1 1 1 1 1 1 1 1 1 1 1 1 1 1 1 1 1 1 1 1 1 1 1 1 1 1 1 1 1 1 1 1 1 1 1 1 1 1 1 1 1 1 1 1 1 1 1 1 1 1 1 1 1 1 1 1 1 1 1 1 1 1 1 1 1 1 1 1 1 1 1 1 1 1 1 1 1 1 1 1 1 1 1 1 1 1 1 1 1 1 1 1 1 1 1 1 1 1 1 1 1 1 1 1 1 1 1 1 1 1 1 1 1 1 1 1 1 1 1 0.0021518582624660411 1 1 1 0.0021712717429765074 1 1 0.0021910986377837189 1 1 1 1 1 1 1 1 1 1 1 0.0022120096922586315 1 1 1 1 0.002235094450671337 1 1 1 1 1 1 1 1 1 1 1 1 1 1 1 1 1 1 1 1 1 1 1 1 1 1 1 1 1 1 1 1 1 1 1 1 1 1 1 1 1 1 1 1 1 1 1 1 1 1 1 1 1 1 1 1 1 1 0.0010491712684152477 1 1 1 1 1 1 1 1 1 1 1 1 1 1 0.0010700743984099351 1 1 0.0010590570092822527 1 0.0010824797530928948 1 1 1 1 1 1 1 1 1 1 1 1 1 0.001096646850898796 1 1 1 1 1 1 1 1 1 1 1 1 1 1 1 1 1 1 1 1 1 1 1 1 1 1 1 1 1 1 1 1 1 1 1 1 1 1 1 1 1 1 1 1 1 1 1 1 1 1 1 1 1 1 1 1 1 1 1 1 1 1 1 1 1 1 1 1 1 1 1 1 1 1 1 1 1 1 1 1 1 1 1 1 1 1 1 1 1 1 1 1 1 1 1 1 1 1 1 1 1 1 1 1 1 1 1 1 1 1 1 1 1 1 1 1 1 1 1 1 1 1 1 1 1 1 1 1 1 1 1 1 1 1 1 1 0.0010070368970795909 1 1 0.0010177656543193837 1 0.0010250366672887516 1 1 1 1 1 1 1 1 1 1 1 1 1 1 1 1 1 1 1 1 1 1 1 1 1 1 1 1 1 1 1 1 1 1 1 1 1 1 1 1 1 1 1 1 1 1 1 0.001040315301132672 1 1 1 1 1 0.0010323667042141684 1 1 1 1 1 1 1 
</DataArray>
<DataArray type="Float64" Name="displacement_divergence" format="ascii">
-2.1938548451026187e-05 -2.4137355478894743e-05 -1.8362266189806984e-05 -2.0946922649893348e-05 -1.9475327798647092e-05 -1.9463807828321492e-05 -1.802098007909915e-05 -1.9345188855113072e-05 -1.7469357730565146e-05 -1.3000286223699143e-05 -1.9331655854925384e-05 -1.216729941276632e-05 -2.3407571973831425e-05 -1.7674048975071781e-05 -2.8513273624993983e-05 -2.2676506778902122e-05 -1.9334959806305352e-05 -2.1253135782727633e-05 -2.6508876451366297e-06 -5.4409609930288791e-06 -5.702586963086187e-06 -1.0654456567768938e-05 -1.261442527893455e-05 -7.6031613537130563e-06 -8.6995471576439316e-06 -1.1465562706795418e-05 -1.2192053986297469e-05 -1.0885126173243953e-05 -4.3010633628714716e-06 -5.2546403847791107e-06 -2.6142036691319736e-06 3.7878633554179082e-07 -8.0441594064096009e-07 -2.0582075040407103e-07 -5.3939946399149973e-06 -1.215919887938439e-05 -9.9688871709523939e-06 -5.7098712246263258e-06 -1.1246711958739881e-05 -1.337948572407805e-05 -9.1005245972572233e-06 -5.8797504378118393e-06 -5.5971590560276371e-06 -5.8012180214863274e-07 -6.1816720557452666e-06 -3.1082562105984768e-06 4.102214974271412e-06 -5.9900576931368231e-08 -2.8056798331816504e-05 -2.1544774752548007e-05 -3.2420460367563703e-05 -2.1373748946833083e-05 -1.6350820923993586e-05 -1.7816803096849405e-05 -1.8123781020032592e-05 -2.0004801914153923e-05 -1.4250541935377193e-05 -2.1666850948798627e-05 -1.6731069633490969e-05 -2.0313967301319027e-05 -2.9311814036414202e-05 -2.8141662288300377e-05 -2.6610494030441289e-05 -3.6777355923549385e-05 -3.8929285455466169e-05 -2.7420460444362351e-05 -3.1793271798593417e-05 -4.3779770420846682e-05 -3.2565793186160779e-05 -3.309870056233701e-05 -3.4141011020794178e-05 -5.0000407951568152e-05 -1.770603678471993e-05 -1.4876858793410949e-05 -2.5052604203275008e-05 -2.3696061325567913e-05 -1.5298197152537437e-05 -2.7712079385189288e-05 -2.4211062344718712e-05 -2.0986453542371975e-05 -1.4780450474137277e-05 -9.0217033638390945e-06 -8.5657279058200938e-06 -6.5718817700227702e-06 -3.0634628340296005e-06 -1.5187559909874933e-05 2.880154472721218e-06 -2.6930541744035863e-07 -2.2535486645269418e-07 8.0919184169679862e-06 4.497461850259176e-06 2.5114591077200521e-06 9.9902394220893295e-06 1.2455678237802348e-05 -7.6056834623815513e-06 -1.1441535043809552e-05 5.5527637491721181e-09 -2.3872564796662467e-06 -4.7838119701388692e-06 -8.0424248092760963e-06 2.0410550249482374e-06 -6.9899683598393606e-06 2.337658635718484e-05 3.2102140817092062e-06 1.0381048592400084e-05 1.6668127560759844e-05 2.473830732955027e-05 2.1009785367489902e-05 1.9414624807860006e-05 2.1189879580068248e-05 4.0526740220746336e-05 6.2028351501057207e-07 7.85941264993593e-06 8.9069089918815067e-06 -6.6392122880905508e-06 -8.5556268541622484e-06 -1.8330806768752494e-05 -2.3785555037565134e-05 -2.815850344373372e-05 -3.4793243621071345e-05 -5.0284406224108654e-05 -3.6741841472442391e-05 -3.5798761959677291e-05 -3.9527938824312009e-05 -3.1430477408730538e-05 -5.1583377064383362e-05 -3.6844218222094978e-05 -2.2562311502558155e-05 -1.4560358464483461e-05 -2.4663489059413085e-05 3.5753301299715546e-05 3.2346907016506923e-05 2.8900235628376753e-05 3.1762409422062956e-05 3.6090029227382845e-05 4.0399391491205519e-05 3.7504541109836672e-05 3.5642529781879345e-05 3.7948009658081636e-05 3.5395042777274218e-05 3.1545304484415637e-05 3.5614510304367002e-05 3.3794341699403908e-05 3.5577208893918915e-05 4.0507649133731316e-05 7.4026027029443637e-05 3.6637413334438164e-05 5.0808479070166152e-05 3.3777900327573276e-05 7.0354321408794339e-05 4.4856715791679041e-05 6.957258620037488e-05 4.0177743675674683e-05 3.5125245426810263e-05 4.2207995101485151e-05 2.5784574527308573e-05 2.6810938299558631e-05 3.6814793922707758e-05 2.8836742727698469e-05 3.5916788806156488e-05 2.2270315629075039e-05 3.1481103064498063e-05 2.4495386849132184e-05 2.2174514703109016e-05 1.7198156688120981e-05 1.9726184064173527e-05 2.0435941206177459e-05 1.8248594831639706e-05 1.144593081216225e-05 1.4438149903847657e-05 1.1972382620707948e-05 9.1238573970920322e-06 6.0173415649737817e-06 1.9214053373157364e-05 1.8187377380208653e-05 1.5971967317975713e-05 1.4411058692624923e-05 1.9950492587639661e-05 1.748985070060976e-05 2.2711011513831575e-05 2.2885191938125538e-05 2.297436139776111e-05 2.5005891329179127e-05 2.2227112971520504e-05 3.0758187648177859e-05 2.6843158100861206e-05 2.6691963329046913e-05 3.2339882438650197e-05 2.5694951576539796e-05 4.2125469040193635e-05 3.0394084396257023e-05 3.5934232629190093e-05 2.8609433613102357e-05 3.4217830809266193e-05 3.3964401982076195e-05 2.7607941973336309e-05 2.7866166379294464e-05 2.7885673360112042e-05 2.4053471831375547e-05 1.9781213833629961e-05 2.2585563406341208e-05 2.3571384699860931e-05 1.8963909565935192e-05 1.6555431844673532e-05 1.8508469924419889e-05 2.0966330301881423e-05 1.7879251817277831e-05 1.6984531975174448e-05 1.453485143469483e-05 1.8672712953282525e-05 1.8536595711343135e-05 2.126625733215743e-05 1.9977626567661106e-05 2.0206438272230281e-05 6.5348835382547919e-06 8.8824380496761027e-06 5.2594951686536439e-06 1.0724483962562894e-05 1.154831548774622e-05 1.2906145579665583e-05 1.4388641473637936e-05 1.522714678241848e-05 1.3846005083811616e-05 1.2307817089602585e-05 1.3450877597121759e-05 1.0906959476755981e-05 9.0338921217715569e-06 5.2943851811534392e-06 4.0895302163373079e-06 4.4540917947412368e-06 6.1926031138732939e-07 2.6338684450146461e-06 6.3002201475873519e-07 3.0230583363855588e-06 6.8556353567378258e-06 6.5093812751695597e-06 7.558393999028115e-06 9.674258373184568e-06 1.0884301237439875e-05 1.2787591003423371e-05 1.1754154883885846e-05 9.5987042362685812e-06 9.9941167974223344e-06 4.9062038963053946e-06 3.8316182293179955e-06 -4.054580217164237e-07 1.8620363776229613e-05 1.8618205207193618e-05 1.6455679391707766e-05 1.5916188624226388e-05 1.4380309102364499e-05 1.6126818730278904e-05 1.5392108048170174e-05 1.3942566355976221e-05 1.8515345146019236e-05 1.6508796313793319e-05 1.9765995586353821e-05 1.6923443570859744e-05 1.7830898343870196e-05 2.055449808299062e-05 1.8572075721811292e-05 2.3368871877913454e-05 1.7733887308187667e-05 2.0997488347356845e-05 2.0103672254519671e-05 2.0070521371036079e-05 1.851434472259428e-05 2.1285459713556851e-05 1.8806913641294472e-05 1.8410775513126659e-05 1.6472023721387035e-05 1.9402261092500347e-05 1.8924579321027944e-05 2.3018138152414495e-05 2.2506704089013849e-05 1.7558034671195999e-05 1.868869905703205e-05 1.8461196028171582e-05 1.369043783038148e-05 1.1464983101471911e-05 8.3569892375635713e-06 2.5669469544736793e-06 6.1853521456793048e-06 9.25884409401132e-06 1.3436962439103148e-05 5.8099234113775865e-06 1.1806886426178663e-05 1.5182367392318993e-05 1.78454729967064e-05 1.7744233646204335e-05 1.6709138152711316e-05 2.153992747683006e-05 1.2255356281260296e-05 9.054889277577349e-06 1.2544449538101839e-05 1.4711493237630135e-05 5.8682661508290458e-06 1.2211577953737551e-05 1.6696060378772461e-05 1.5566290554152356e-05 2.5067568993508592e-05 1.823161422646087e-05 1.8277842547405177e-05 2.1089442641160671e-05 2.0293227684935772e-05 2.4383260810818885e-05 3.1640520458387639e-05 2.7495821826287971e-05 2.9612812053786851e-05 2.3868378560564205e-05 2.5994168421753945e-05 3.0779497689422834e-05 2.5784969360509724e-05 2.8371704257114827e-05 2.2906133484024775e-05 2.2453836425294271e-05 2.1972054540067811e-05 2.317738644703406e-05 1.9484632274968044e-05 2.1885312913468921e-05 1.9380696722969175e-05 2.0667396549290604e-05 1.931940787615541e-05 2.1783285376642244e-05 2.2736119888403503e-05 -4.0068568327778823e-05 -2.7880915153256592e-05 -3.0495602651070129e-05 -2.4537564363430604e-05 -2.2814145368683246e-05 -2.7597657684785586e-05 -3.0507830542828723e-05 -2.6240702104460999e-05 -2.4487205370274692e-05 -2.1276739444983384e-05 -2.2966705637933332e-05 -2.294984672971979e-05 -2.1495777201672591e-05 -1.3757720641998936e-05 -2.123962334612731e-05 -3.2037646511794795e-05 -1.2752445713635907e-05 -2.4886619743375358e-05 -1.2495795768235198e-05 -1.1296968797649737e-05 -1.2791873351306454e-05 -1.0933594385747854e-05 -1.3369621683280908e-05 -5.8567537512632613e-06 -6.3203106608617006e-06 -2.6869309877495593e-06 -3.9732390384146564e-06 3.1382980369985097e-06 5.9255234189944255e-06 1.1160240686017335e-07 -2.369014022770545e-06 -1.5595858344336219e-06 2.0366997603805527e-06 7.108182211955476e-06 -2.8513839496529316e-06 6.4454783882510507e-06 1.9082916423725831e-06 -3.8456956139802216e-06 7.5552440150056143e-06 -2.5920472066269351e-06 5.8934583868410114e-07 -1.5517531396311598e-05 -1.3652731560301626e-05 -1.3307398175471808e-05 -2.0983711735846107e-06 -1.0662392172475579e-05 -2.2190254880628304e-05 -1.8681018625978404e-05 -2.6791997288024388e-05 -2.0352863835071424e-05 -2.7065791936551065e-05 -1.3530671777548141e-05 -2.4110169490699153e-05 -4.2224363455645376e-05 -4.3145950595498605e-05 -5.401157266913513e-05 -3.8243035640184447e-05 -4.6303205095191712e-05 -2.8400624974788432e-05 -4.0191920913392421e-05 -2.7745720126223477e-05 -5.0233736593217083e-05 -7.7355765061690616e-05 -4.6440265525653544e-05 -4.4798497900380512e-05 -6.7824462509617241e-05 -6.0493508671347256e-05 -4.0167225637410906e-05 -4.5260645651569274e-05 -4.1841754649537252e-05 -2.2795559827818239e-05 -2.6396712715170934e-05 -1.9535491735674652e-05 -1.9387980522469339e-05 -3.1149461155372287e-05 -2.0083653270788231e-05 3.9882213521427138e-06 1.5934789029067953e-05 1.4688126249163636e-05 -1.1886414257531843e-05 -3.2560978590299519e-06 -1.7215006030526393e-05 -8.8080533213131387e-06 -4.2424669078446621e-06 6.8319458937338728e-06 -1.3316545873004519e-06 8.3548338505845821e-06 2.062921277475287e-05 1.1801615863997935e-05 2.392289036937198e-05 1.2369247204858329e-05 2.4544488671429433e-05 3.8741757357575377e-05 2.0737519711370641e-05 3.7110736863379235e-05 4.2163565829513014e-05 7.1794776186822143e-05 6.7170767881067931e-05 3.8048386642196557e-05 3.1998763965517327e-05 7.5151596630875373e-05 0.00012373001655218742 0.00011655211655188856 0.00012510729596163601 8.7041322241854561e-05 6.0251723364057879e-05 7.1405852132983531e-05 5.9494378065564379e-05 2.8777356206670184e-05 2.2604001825886761e-05 1.2258338386129356e-05 -1.4857881452252209e-07 4.1626979975597481e-05 6.5944329956057449e-07 -2.654871139251856e-05 -2.7357344783059622e-05 -9.1101387480553618e-06 -1.4982875227945159e-05 -6.51106518134248e-06 -2.9748140570026722e-05 -1.2118587602227815e-05 -2.7526828813406084e-05 -4.2811600455992999e-05 -4.2751572551977994e-05 -6.9181659073265284e-05 -5.1706089826840352e-05 -7.7544362321801144e-05 -5.6197212625685089e-05 -4.0924970425301541e-05 -5.4070294536879236e-05 4.6718307046477405e-05 5.406509831018339e-05 5.7269012187906334e-05 5.2405373944923404e-05 4.733331416127336e-05 3.9777228847275469e-05 3.4796807500949716e-05 4.3548324238171912e-05 3.1485005905939828e-05 3.5167960613410022e-05 2.6295092326949984e-05 3.4684284355260985e-05 3.0391555438174581e-05 3.7981257405284588e-05 3.9084796209490423e-05 3.508412757025482e-05 3.1456524337304097e-05 2.6115335627178512e-05 3.9699479523663995e-05 3.5387903318862648e-05 4.3768898624312669e-05 2.5648997997693711e-05 3.3058733688027244e-05 4.2071832510608794e-05 5.3302096793926185e-05 6.8120189917625753e-05 4.9748172518457099e-05 5.4264040238365382e-05 5.6871454952343395e-05 6.9933271961392476e-05 7.9869169729452705e-05 9.9727543179874861e-05 0.00011079632741823285 9.8484115465546197e-05 8.7198319708058666e-05 9.48741087932931e-05 0.00011641497330631644 0.00011207264467948913 0.00019153857903531334 0.00023364888478243063 0.00022149018768083436 0.00015250003334250667 8.6489090531852582e-05 0.00011598910474218274 0.00014100451977310782 8.5364413406297386e-05 8.9261986085397159e-05 9.1628181172745084e-05 6.5367702742917324e-05 8.0721873599616653e-05 5.3827250897931159e-05 6.5389347985212769e-05 5.0026950928568105e-05 6.9593813877913505e-05 4.1836902551000853e-05 5.0964325205622016e-05 6.0482690709808787e-05 4.8090974854334771e-05 4.3936738157586813e-05 6.5263696957974923e-05 4.7349976056084979e-05 4.0101894822543253e-05 5.3168815405459425e-05 3.6557491202631625e-05 2.9287689224965856e-05 4.0177530804839609e-05 4.2411516301794569e-05 2.6549488419848842e-05 4.3499351354432593e-05 3.3890741599770297e-05 4.0415982989147788e-05 6.7948683920946183e-05 5.9447243526242597e-05 5.8073795123025023e-05 6.3520709477393788e-05 8.6644834884530087e-05 9.4687225430374681e-05 0.00010961497736519726 0.00024290080907416888 3.631788335223382e-05 0.00010168899549123638 0.00022876845248162472 0.00014036825449055009 0.013193744768173605 0.00019455073101224622 0.00010536610066646992 0.032389839232138409 3.2752054050795402e-05 9.4895423105709247e-05 0.045276277475255998 3.9769675410004284e-05 7.11100296113779e-05 3.6247506590581652e-05 4.6733781062007255e-05 4.6188684705463564e-05 4.1532080844162143e-05 3.7993204311984161e-05 5.50825489177283e-05 5.3768589682129641e-05 4.4513504160768077e-05 6.7891343149063463e-05 8.5391262473561531e-05 8.8754337909634218e-05 0.056087987750283473 8.3657268653742375e-05 8.4275543996054775e-05 7.739172936162904e-05 8.8557524671078244e-05 7.0371430528061831e-05 0.066224679396884728 8.7019834752107743e-05 4.9427467663897299e-05 3.9735868732737546e-05 6.6292699591450385e-05 5.5078821230259838e-05 5.8408427700653133e-05 3.692497714994226e-05 3.8069708782400668e-05 3.8917140775190137e-05 2.8306874706652077e-05 2.9900568280033079e-05 2.3802169451310883e-05 2.8373138589291242e-05 2.5175548632834694e-05 2.8624546222218002e-05 2.9349762608181268e-05 2.2306708401837312e-05 3.1388527068859076e-05 2.709533513705603e-05 2.8594256522367371e-05 3.0860680686603965e-05 3.6017589868590826e-05 -2.9142554866463987e-05 -3.3464102540874422e-05 -1.5428151917268318e-05 -5.1697502879179125e-05 -5.5658645134246576e-05 -3.1317185836083825e-05 -3.0255550666541528e-05 -1.1830829673708317e-05 2.0449091607578369e-06 1.9958619452464625e-05 -3.9035028070472794e-06 6.151427151815088e-06 -1.4315110070820935e-05 4.3809736553709639e-06 4.442330230423555e-05 2.6151229533557608e-05 6.8681782710721718e-05 2.8640926824909053e-05 5.9835354590596738e-06 4.4480787946695691e-05 4.0845688878663714e-05 9.2694159970647125e-05 0.00013489669549288064 0.0001015031340588052 0.00010190387234687922 6.0101992732034936e-05 7.0763242420632125e-05 7.6688121260311357e-05 4.6557636531823583e-05 4.3440318913134457e-05 6.288036895675162e-05 6.0351823093576958e-05 6.3885603925431002e-05 5.7289952789242292e-05 4.4579875221409122e-05 4.1463080362946162e-05 2.6243838817935344e-05 2.7318502585180665e-05 2.4747591743804441e-05 8.6984589164904383e-06 2.8720228672903404e-05 3.2068707429303727e-05 1.5963391134906713e-05 1.4442379733865644e-05 -1.8822045228833635e-06 -1.0163240211278593e-06 -1.5873797495225689e-06 -3.4369515849559055e-06 1.0679757005002503e-05 8.334679781342631e-06 3.3573543150745323e-06 -2.5074247519780643e-06 -5.6538349555278894e-06 -1.2730264713088765e-05 -1.9678241121048011e-06 -8.3224574789493144e-06 -2.3975210080579967e-05 -1.8206298923592037e-05 -1.4836303623650803e-05 5.5001305354041664e-06 1.8888753796752339e-07 6.5062387832872867e-06 -2.2835294867687254e-06 -2.1204038647506564e-07 -7.3948164252932332e-06 -6.2514798095554547e-06 -1.7908725413228258e-06 2.4387080863269919e-06 5.8931985694697653e-06 9.3088099941854123e-06 1.4404203777292329e-05 1.401488212184358e-05 5.6673159486899521e-06 1.2476776556139793e-05 2.7452533836358657e-05 3.254596372153978e-05 3.9680684221606727e-05 1.4792106672702372e-05 1.2298802954402183e-05 2.4591142214191943e-05 2.4213818018414216e-05 3.4435807285071451e-05 2.7914457808414853e-05 5.0603438076122012e-05 5.1435557034562856e-05 4.160148813097753e-05 5.689636330776242e-05 7.447655585821316e-05 6.3103725765927075e-05 7.6018038809713868e-05 4.5825079656481595e-05 5.9363051032359647e-05 8.1070444458198471e-05 7.1553670630595569e-05 8.6783106571272639e-05 7.989043517566026e-05 0.00010205786484806297 0.00011169003897814917 8.4317801451114227e-05 6.8953149075560126e-05 2.5478816399548444e-05 3.7682616214734874e-05 4.6707963642707295e-05 2.6774518544781575e-05 5.1005106615120178e-05 3.8121521298304338e-05 4.7788325841919849e-05 1.8285231849221508e-05 6.8063028760183622e-06 1.2840299117468715e-05 8.5616383125679783e-06 1.7687369927048367e-05 1.6348391283890935e-05 8.2898085873731389e-06 1.3068841315066852e-05 1.009229092606553e-05 6.906238992338172e-06 6.4944675458249819e-06 5.2828776203397987e-06 4.1230640885521475e-06 6.0371296055107548e-06 3.8680714797914573e-06 5.4720515879208022e-06 6.6871773443926558e-07 3.5495872343356051e-05 5.7319459325554491e-05 5.373540605235137e-05 4.8244384866753072e-05 3.3310830801353994e-05 2.458600621872112e-05 2.5464486822051962e-05 2.9633693811273698e-05 2.2862433354888336e-05 2.3257054173497473e-05 3.4750082095145844e-05 3.3461604894363911e-05 3.3681663327967239e-05 4.7737725236844273e-05 4.5971131629319218e-05 6.2012990253046407e-05 7.9918631433522225e-05 9.4103549703905499e-05 7.0287335993983165e-05 8.4715476106828622e-05 0.00010179771014685434 8.639365859868344e-05 0.075974441297307654 7.6982034276047457e-05 0.00010110571675684679 9.9635588116963811e-05 0.085679497401409385 0.00010399118057878652 0.00010943919625745172 0.095639980820769535 0.00010180092126364494 7.3506563366662874e-05 0.00010591213563784367 7.2995197673368845e-05 8.2932656283378877e-05 9.483470667048658e-05 7.8706249796210831e-05 0.00011984306198986513 0.00012374527849460712 0.00010497905634845319 0.00012353978219145981 0.10596341370572562 0.00014164748723490342 0.00013399950909301749 0.00011861972513124968 0.0001329801179519299 0.11806883159867915 0.00015519706109764966 0.00014083795305381425 8.0579574266300639e-05 0.00013374767444803147 0.00015177124296873138 0.00013149640785280008 9.2560982880050672e-05 3.7554277128777202e-05 6.8850173549995304e-05 3.5731596656617018e-05 6.1833178346486629e-05 4.0390360120859414e-05 3.7747962888613762e-05 4.7456716508449958e-05 6.1021673972312608e-05 2.5426933104171563e-05 2.9159300958891238e-05 2.6872059568087167e-05 3.4039081537911565e-05 1.9942289266445114e-05 1.8179479383515634e-05 6.7953037409649751e-06 1.2126161632639563e-05 1.3251196878671934e-07 1.5307004387009088e-05 1.558671115222364e-05 1.3863338017195328e-05 4.8767808763557985e-05 2.4925824400354588e-05 2.4964233551955377e-05 4.936750655835443e-05 3.2375043854343348e-05 3.1591156474476689e-05 3.971086946109642e-05 4.9525294857866446e-05 2.4068435254566656e-05 2.8057588666133531e-05 2.0261826768125249e-05 2.5375299967231671e-05 2.2968305956297787e-05 2.7027187180413636e-05 2.5624727547625035e-05 2.3535489599658325e-05 2.9989615210629795e-05 2.8440699683457893e-05 4.0624711922695474e-05 4.9362507890255737e-05 3.273823741280896e-05 2.7099426181091007e-05 3.4636847738927679e-05 4.1463736554153707e-05 2.9511951576698266e-05 2.1366391670690874e-05 2.6053941678069814e-05 2.2305875356048522e-05 2.6590075290160904e-05 2.7948531773836836e-05 6.9803827481496744e-05 0.049213916445680406 7.1388764650952502e-05 6.5298133686722104e-05 5.6743737025351172e-05 4.032851986857695e-05 4.4136867863482209e-05 4.6339609364662467e-05 7.014761989969343e-05 6.114911487877287e-05 6.7532654000865836e-05 5.9557752561600614e-05 8.6396224615167372e-05 9.9459772774385916e-05 7.4739705237645941e-05 7.6229302130865388e-05 0.070142973049097362 8.3195066561292494e-05 8.1262365993177953e-05 0.059102796360360269 9.9216259543945858e-05 0.082514306118467967 0.00012200372230095069 0.00011035374903078297 9.6956318074211973e-05 6.509106562043353e-05 7.9758300311603362e-05 0.00010303610134072442 8.8862137048908183e-05 6.481919430448616e-05 0.00011477578798365284 0.00013570666537528778 0.00011105962952909373 7.7490536319638797e-05 0.0001140562275808298 0.096879887901419562 0.00014105790174904001 0.00012239879828706548 9.3891641060233353e-05 6.7187013581983864e-05 6.5904407484112301e-05 8.4422771015269979e-05 5.0824721714771808e-05 2.4287225700999129e-05 2.0407276426226591e-05 3.4037591508291783e-05 4.094606485184572e-05 2.5982456270597174e-05 1.9360452382432246e-05 3.3515504180708488e-05 6.0804409981215233e-05 7.1294063512028927e-05 5.3666061995869929e-05 5.4972425545664165e-06 3.0789473536366185e-06 4.4109093541558416e-06 5.3650488438666821e-06 3.4550377375850566e-06 6.0823588884282263e-06 1.0710805351747676e-05 4.7865134095007901e-06 8.5548361309444699e-06 9.1180565973548577e-06 7.9117840691008638e-06 -1.400077385715166e-06 8.1473914923636619e-06 5.5061819088154419e-06 1.3267410055435537e-06 -5.2755954801972058e-06 1.704408470382026e-06 -1.0164527988451794e-05 1.1949565810235284e-06 -8.7066103928064298e-07 -9.2280917007633975e-06 -1.5898519980194728e-06 7.6591331058097154e-06 5.5545345915464402e-06 7.9203788599284744e-06 -2.2096172117647486e-06 -1.129917477386838e-06 7.5427143374049051e-06 -5.3762455031823152e-06 -9.2865659483806675e-06 -1.3035986364487049e-05 -1.1714632360439094e-05 -1.9999610955756726e-05 -1.0626624923894008e-05 4.2675245291990543e-05 3.6923038806047472e-05 5.44275414741367e-05 4.3980937278207625e-05 2.0364702306607113e-05 1.6184274219142218e-05 2.8067045429869611e-05 2.2953337643642898e-05 1.7043341087595349e-05 1.2246946835052681e-05 1.4126518179222424e-05 3.5810716747322136e-05 3.0871486152022308e-05 5.484529230618965e-05 4.42659920540931e-05 4.7605693860608661e-05 3.5223652457174901e-05 3.6820425364133798e-05 4.0464124174778571e-05 2.3691889209966456e-05 2.941956344079883e-05 2.1448897111349483e-05 8.6545148448777514e-06 5.5820688907562335e-06 2.0806650728513016e-05 1.0814154940088803e-05 1.7132186744739679e-05 4.2286388433242705e-06 7.9876994941983394e-06 3.2631213171720544e-05 3.7670686487953136e-05 3.736742902964987e-05 1.9582169083811544e-05 3.1360757361748644e-05 -1.9750799697203442e-05 -2.5681884339316786e-05 -2.0727625522347901e-05 -2.6320470411867695e-05 -1.5146199415242952e-05 -5.2214973907619561e-06 -1.2767528797682625e-05 -2.4103811154374934e-06 -2.974270255200152e-06 -5.8256350003844069e-06 -3.3869084820956035e-06 -2.7163879082964595e-06 -1.0156498066245008e-05 -1.5574724662355266e-05 -1.6258670770355498e-05 -1.6052804759386424e-05 -2.6525722235085222e-05 -2.5726834205460302e-05 -3.2671918428558641e-05 -4.6733129840909266e-05 -3.8205058985119446e-05 -3.1603248352072579e-05 -2.5018637884110465e-05 -2.0738805364193158e-05 -6.8408230438718074e-06 -7.0884593229426744e-06 -2.1853503873126229e-06 -1.4980107085684337e-05 -1.2511612073651571e-05 -1.9952453289360475e-05 -2.0971628645840136e-05 -3.1886881253564872e-05 -2.9574150705258567e-05 -4.5738445986781199e-05 2.2421774927291079e-05 4.5119737020701887e-05 2.2029897537312717e-05 1.6075388327820581e-05 2.9254803566628428e-06 7.0080209739870037e-06 1.9413996382679948e-05 9.500123229224419e-06 -9.8881956012242343e-06 -2.3593122186865148e-06 7.793333171521213e-06 2.6355173264496542e-05 2.8043673720589248e-05 4.795319326652974e-05 7.9579032775978036e-05 1.418822776973758e-05 9.5298341127080259e-05 0.0070958229567143396 4.3761042865343724e-05 4.5832492918870533e-05 0.017788862543230487 6.3340340508395081e-05 0.025067258369863801 5.0811374048192917e-05 4.4170451293569361e-05 2.1032256877409519e-05 2.146488527518913e-05 2.5356895781008919e-05 7.7646283020868739e-06 3.0354235930164661e-05 1.5113435486130246e-05 4.9153856323538698e-05 2.6375893103684463e-05 2.078797232001243e-05 3.3408520485968252e-05 2.8403158636715355e-05 3.2167979627701569e-05 4.0481887560420858e-05 3.9760918788055985e-05 3.3253541717476657e-05 2.8110848457683912e-05 2.8463908522612449e-05 2.5822934042700631e-05 2.285332659187543e-05 2.3725832088704621e-05 2.3713881191426923e-05 2.4216801651180659e-05 2.3611412858290132e-05 2.2674377256972874e-05 2.5584732982808717e-05 2.7580542854235607e-05 2.5212462764434237e-05 2.5658820356744575e-05 2.4794908645269236e-05 2.4811336138983689e-05 2.4509439488915314e-05 1.957564971101207e-05 2.145469032868903e-05 2.6477605556615334e-05 3.1292232219811886e-05 2.826093380775221e-05 2.4821205993619608e-05 2.6086558529990521e-05 3.1739404680657612e-05 3.5415366641749634e-05 4.2372036370195857e-05 3.7115126813915813e-05 3.4268082997316002e-05 4.7626868476654356e-05 6.2445526908973432e-05 0.040351814044450471 5.2681012718836732e-05 5.839025431982948e-05 5.3188606445464721e-05 5.8558730251378685e-05 3.8559395662949664e-05 0.032398567403561424 5.1622729005886556e-05 4.1732647725230059e-05 5.6604281774865297e-05 2.9401892623854902e-05 2.5174545668580619e-05 2.7734099155628358e-05 3.6077858132880971e-05 
</DataArray>
</CellData>
</Piece>
</UnstructuredGrid>
</VTKFile>
