<?xml version="1.0"?>
<VTKFile type="UnstructuredGrid" version="0.1" byte_order="LittleEndian">
<UnstructuredGrid>
<Piece NumberOfPoints="3142" NumberOfCells="1054">
<Points>
<DataArray type="Float64" NumberOfComponents="3" format="ascii">
0.02576622439977887 0.024532886826226379 0 0 0 0 0.049999999999899652 0 0 0.02576622439977887 0.024532886826226379 0 0 0 0 0 0.050000000000207989 0 0.02576622439977887 0.024532886826226379 0 0.049999999999899652 0 0 0.053064897599215843 0.048131547304697528 0 0.02576622439977887 0.024532886826226379 0 0.053064897599215843 0.048131547304697528 0 0 0.050000000000207989 0 0 0.050000000000207989 0 0 0.10000000000041601 0 0.044310582753132287 0.101412518374475 0 0 0.10000000000041601 0 0.044310582753132287 0.101412518374475 0 0 0.15000000000062411 0 0.053064897599215843 0.048131547304697528 0 0.044310582753132287 0.101412518374475 0 0.083411279318303222 0.089699755330707398 0 0.053064897599215843 0.048131547304697528 0 0 0.050000000000207989 0 0.044310582753132287 0.101412518374475 0 0.044310582753132287 0.101412518374475 0 0.083411279318303222 0.089699755330707398 0 0.065374659239632718 0.1448908038746782 0 0.083411279318303222 0.089699755330707398 0 0.065374659239632718 0.1448908038746782 0 0.1053400320299198 0.12877248826361379 0 0.083411279318303222 0.089699755330707398 0 0.12372429750337779 0.095814237875728972 0 0.1053400320299198 0.12877248826361379 0 0.12372429750337779 0.095814237875728972 0 0.1053400320299198 0.12877248826361379 0 0.14332333627550789 0.14578431753966009 0 0.12372429750337779 0.095814237875728972 0 0.10266856499169109 0.044518360900210059 0 0.14618258501891079 0.062070108745602003 0 0.083411279318303222 0.089699755330707398 0 0.12372429750337779 0.095814237875728972 0 0.10266856499169109 0.044518360900210059 0 0.10266856499169109 0.044518360900210059 0 0.099999999999814668 0 0 0.14999999999970359 0 0 0.049999999999899652 0 0 0.053064897599215843 0.048131547304697528 0 0.099999999999814668 0 0 0.053064897599215843 0.048131547304697528 0 0.10266856499169109 0.044518360900210059 0 0.099999999999814668 0 0 0.053064897599215843 0.048131547304697528 0 0.083411279318303222 0.089699755330707398 0 0.10266856499169109 0.044518360900210059 0 0.044081577119474857 0.2271058242433576 0 0 0.20000000000083221 0 0 0.25000000000104028 0 0.044081577119474857 0.2271058242433576 0 0 0.20000000000083221 0 0.038512288486115001 0.1844147282893184 0 0.044081577119474857 0.2271058242433576 0 0.038512288486115001 0.1844147282893184 0 0.083105206071467416 0.20007701332709979 0 0.038512288486115001 0.1844147282893184 0 0 0.15000000000062411 0 0.065374659239632718 0.1448908038746782 0 0.044310582753132287 0.101412518374475 0 0 0.15000000000062411 0 0.065374659239632718 0.1448908038746782 0 0.038512288486115001 0.1844147282893184 0 0.065374659239632718 0.1448908038746782 0 0.083105206071467416 0.20007701332709979 0 0 0.20000000000083221 0 0.038512288486115001 0.1844147282893184 0 0 0.15000000000062411 0 0.065374659239632718 0.1448908038746782 0 0.1053400320299198 0.12877248826361379 0 0.106902708054812 0.16453234188234539 0 0.1053400320299198 0.12877248826361379 0 0.106902708054812 0.16453234188234539 0 0.14332333627550789 0.14578431753966009 0 0.065374659239632718 0.1448908038746782 0 0.106902708054812 0.16453234188234539 0 0.083105206071467416 0.20007701332709979 0 0.083105206071467416 0.20007701332709979 0 0.095326043202144745 0.24554465089224409 0 0.13737030665753211 0.20313708640667491 0 0.106902708054812 0.16453234188234539 0 0.083105206071467416 0.20007701332709979 0 0.13737030665753211 0.20313708640667491 0 0.044081577119474857 0.2271058242433576 0 0.083105206071467416 0.20007701332709979 0 0.095326043202144745 0.24554465089224409 0 0.044081577119474857 0.2271058242433576 0 0.095326043202144745 0.24554465089224409 0 0.049706944316556423 0.27522722923869108 0 0.095326043202144745 0.24554465089224409 0 0.14377654328998779 0.2442024734791064 0 0.13737030665753211 0.20313708640667491 0 0.17933913398461551 0.2350063570234002 0 0.14377654328998779 0.2442024734791064 0 0.13737030665753211 0.20313708640667491 0 0.17933913398461551 0.2350063570234002 0 0.13737030665753211 0.20313708640667491 0 0.18124454140915969 0.18790916706335251 0 0.18124454140915969 0.18790916706335251 0 0.14332333627550789 0.14578431753966009 0 0.18652628422869419 0.14162325200928061 0 0.106902708054812 0.16453234188234539 0 0.13737030665753211 0.20313708640667491 0 0.14332333627550789 0.14578431753966009 0 0.13737030665753211 0.20313708640667491 0 0.18124454140915969 0.18790916706335251 0 0.14332333627550789 0.14578431753966009 0 0.14332333627550789 0.14578431753966009 0 0.18652628422869419 0.14162325200928061 0 0.16141998738593399 0.10404039647458049 0 0.18652628422869419 0.14162325200928061 0 0.22985637510995899 0.1298347970200906 0 0.2185883431182947 0.18019736283949719 0 0.22985637510995899 0.1298347970200906 0 0.2185883431182947 0.18019736283949719 0 0.25557216766470708 0.15874861286892261 0 0.2185883431182947 0.18019736283949719 0 0.25557216766470708 0.15874861286892261 0 0.26429849586623999 0.19346700179430079 0 0.18124454140915969 0.18790916706335251 0 0.18652628422869419 0.14162325200928061 0 0.2185883431182947 0.18019736283949719 0 0.17933913398461551 0.2350063570234002 0 0.18124454140915969 0.18790916706335251 0 0.224700362040408 0.22206622194729711 0 0.18124454140915969 0.18790916706335251 0 0.2185883431182947 0.18019736283949719 0 0.224700362040408 0.22206622194729711 0 0.2185883431182947 0.18019736283949719 0 0.224700362040408 0.22206622194729711 0 0.26429849586623999 0.19346700179430079 0 0.224700362040408 0.22206622194729711 0 0.25195515620380449 0.25883339815888678 0 0.21049769590865089 0.26857363548218488 0 0.17933913398461551 0.2350063570234002 0 0.224700362040408 0.22206622194729711 0 0.21049769590865089 0.26857363548218488 0 0.184418230509967 0.038773194583122873 0 0.14999999999970359 0 0 0.14618258501891079 0.062070108745602003 0 0.184418230509967 0.038773194583122873 0 0.14618258501891079 0.062070108745602003 0 0.19922788606653311 0.085920220746880993 0 0.184418230509967 0.038773194583122873 0 0.14999999999970359 0 0 0.19999999999955789 0 0 0.10266856499169109 0.044518360900210059 0 0.14999999999970359 0 0 0.14618258501891079 0.062070108745602003 0 0.12372429750337779 0.095814237875728972 0 0.14618258501891079 0.062070108745602003 0 0.16141998738593399 0.10404039647458049 0 0.12372429750337779 0.095814237875728972 0 0.14332333627550789 0.14578431753966009 0 0.16141998738593399 0.10404039647458049 0 0.18652628422869419 0.14162325200928061 0 0.16141998738593399 0.10404039647458049 0 0.19922788606653311 0.085920220746880993 0 0.14618258501891079 0.062070108745602003 0 0.16141998738593399 0.10404039647458049 0 0.19922788606653311 0.085920220746880993 0 0.18652628422869419 0.14162325200928061 0 0.22985637510995899 0.1298347970200906 0 0.19922788606653311 0.085920220746880993 0 0.22985637510995899 0.1298347970200906 0 0.19922788606653311 0.085920220746880993 0 0.24218496799700481 0.089025544070598317 0 0.22985637510995899 0.1298347970200906 0 0.24218496799700481 0.089025544070598317 0 0.27474541102162192 0.11822029332053539 0 0.19922788606653311 0.085920220746880993 0 0.24218496799700481 0.089025544070598317 0 0.22668068146512929 0.045875643423131329 0 0.24218496799700481 0.089025544070598317 0 0.22668068146512929 0.045875643423131329 0 0.27499999999933927 0.060310814194988557 0 0.184418230509967 0.038773194583122873 0 0.19922788606653311 0.085920220746880993 0 0.22668068146512929 0.045875643423131329 0 0.184418230509967 0.038773194583122873 0 0.22668068146512929 0.045875643423131329 0 0.19999999999955789 0 0 0.22668068146512929 0.045875643423131329 0 0.19999999999955789 0 0 0.24999999999941211 0 0 0.24999999999941211 0 0 0.27499999999933927 0.060310814194988557 0 0.29999999999926641 0 0 0.22668068146512929 0.045875643423131329 0 0.24999999999941211 0 0 0.27499999999933927 0.060310814194988557 0 0.27499999999933927 0.060310814194988557 0 0.29999999999926641 0 0 0.32541448401678508 0.046215317981507749 0 0.29999999999926641 0 0 0.32541448401678508 0.046215317981507749 0 0.34999999999912063 0 0 0.32541448401678508 0.046215317981507749 0 0.3615861437013822 0.03582617922508851 0 0.35312867752657662 0.084946736076730367 0 0.3615861437013822 0.03582617922508851 0 0.35312867752657662 0.084946736076730367 0 0.39591832466117061 0.056982757562006353 0 0.32541448401678508 0.046215317981507749 0 0.3615861437013822 0.03582617922508851 0 0.34999999999912063 0 0 0.3615861437013822 0.03582617922508851 0 0.34999999999912063 0 0 0.3999999999989749 0 0 0.35312867752657662 0.084946736076730367 0 0.36246644853392812 0.1399454205365751 0 0.39823268594401579 0.1116623613130045 0 0.35312867752657662 0.084946736076730367 0 0.32215584939770009 0.1218492143506909 0 0.36246644853392812 0.1399454205365751 0 0.32541448401678508 0.046215317981507749 0 0.35312867752657662 0.084946736076730367 0 0.3096713403101819 0.085471541595262421 0 0.35312867752657662 0.084946736076730367 0 0.32215584939770009 0.1218492143506909 0 0.3096713403101819 0.085471541595262421 0 0.32215584939770009 0.1218492143506909 0 0.3096713403101819 0.085471541595262421 0 0.27474541102162192 0.11822029332053539 0 0.27499999999933927 0.060310814194988557 0 0.32541448401678508 0.046215317981507749 0 0.3096713403101819 0.085471541595262421 0 0.27499999999933927 0.060310814194988557 0 0.3096713403101819 0.085471541595262421 0 0.27474541102162192 0.11822029332053539 0 0.24218496799700481 0.089025544070598317 0 0.27499999999933927 0.060310814194988557 0 0.27474541102162192 0.11822029332053539 0 0.22985637510995899 0.1298347970200906 0 0.27474541102162192 0.11822029332053539 0 0.25557216766470708 0.15874861286892261 0 0.27474541102162192 0.11822029332053539 0 0.25557216766470708 0.15874861286892261 0 0.29336099386129338 0.15892013001050981 0 0.25557216766470708 0.15874861286892261 0 0.29336099386129338 0.15892013001050981 0 0.26429849586623999 0.19346700179430079 0 0.29336099386129338 0.15892013001050981 0 0.31255190597181792 0.19850845631528771 0 0.33084213324567391 0.16272720141332131 0 0.29336099386129338 0.15892013001050981 0 0.26429849586623999 0.19346700179430079 0 0.31255190597181792 0.19850845631528771 0 0.32215584939770009 0.1218492143506909 0 0.27474541102162192 0.11822029332053539 0 0.29336099386129338 0.15892013001050981 0 0.224700362040408 0.22206622194729711 0 0.28040350263641872 0.23054717217092141 0 0.25195515620380449 0.25883339815888678 0 0.224700362040408 0.22206622194729711 0 0.28040350263641872 0.23054717217092141 0 0.26429849586623999 0.19346700179430079 0 0.28040350263641872 0.23054717217092141 0 0.26429849586623999 0.19346700179430079 0 0.31255190597181792 0.19850845631528771 0 0.28040350263641872 0.23054717217092141 0 0.33758650185219202 0.23837101504325639 0 0.29132859388405002 0.27203693976649962 0 0.28040350263641872 0.23054717217092141 0 0.33758650185219202 0.23837101504325639 0 0.31255190597181792 0.19850845631528771 0 0.33758650185219202 0.23837101504325639 0 0.31255190597181792 0.19850845631528771 0 0.3572130504031617 0.1874703368446563 0 0.33758650185219202 0.23837101504325639 0 0.3572130504031617 0.1874703368446563 0 0.38831533174504851 0.2189834941785925 0 0.33758650185219202 0.23837101504325639 0 0.38831533174504851 0.2189834941785925 0 0.3786248352540974 0.27082301512024259 0 0.32215584939770009 0.1218492143506909 0 0.29336099386129338 0.15892013001050981 0 0.33084213324567391 0.16272720141332131 0 0.32215584939770009 0.1218492143506909 0 0.33084213324567391 0.16272720141332131 0 0.36246644853392812 0.1399454205365751 0 0.31255190597181792 0.19850845631528771 0 0.33084213324567391 0.16272720141332131 0 0.3572130504031617 0.1874703368446563 0 0.3572130504031617 0.1874703368446563 0 0.36246644853392812 0.1399454205365751 0 0.39801143831225599 0.16651381068160659 0 0.33084213324567391 0.16272720141332131 0 0.3572130504031617 0.1874703368446563 0 0.36246644853392812 0.1399454205365751 0 0.36246644853392812 0.1399454205365751 0 0.39801143831225599 0.16651381068160659 0 0.39823268594401579 0.1116623613130045 0 0.39801143831225599 0.16651381068160659 0 0.42905200079338551 0.19982395548231649 0 0.44288491854585582 0.14116182884956319 0 0.39801143831225599 0.16651381068160659 0 0.44288491854585582 0.14116182884956319 0 0.39823268594401579 0.1116623613130045 0 0.38831533174504851 0.2189834941785925 0 0.42377727103934271 0.25099357235810238 0 0.3786248352540974 0.27082301512024259 0 0.3572130504031617 0.1874703368446563 0 0.39801143831225599 0.16651381068160659 0 0.38831533174504851 0.2189834941785925 0 0.39801143831225599 0.16651381068160659 0 0.38831533174504851 0.2189834941785925 0 0.42905200079338551 0.19982395548231649 0 0.38831533174504851 0.2189834941785925 0 0.42905200079338551 0.19982395548231649 0 0.42377727103934271 0.25099357235810238 0 0.42905200079338551 0.19982395548231649 0 0.46429753744194407 0.22870891180733599 0 0.42377727103934271 0.25099357235810238 0 0.42905200079338551 0.19982395548231649 0 0.46429753744194407 0.22870891180733599 0 0.47357141910802508 0.1873585799078378 0 0.47357141910802508 0.1873585799078378 0 0.51729576145820033 0.1683240575987815 0 0.50760557329222289 0.20700468884612061 0 0.46429753744194407 0.22870891180733599 0 0.47357141910802508 0.1873585799078378 0 0.50760557329222289 0.20700468884612061 0 0.46429753744194407 0.22870891180733599 0 0.49695729691142171 0.25014895411178018 0 0.50760557329222289 0.20700468884612061 0 0.44288491854585582 0.14116182884956319 0 0.47357141910802508 0.1873585799078378 0 0.48466639505193998 0.1421439844745814 0 0.42905200079338551 0.19982395548231649 0 0.44288491854585582 0.14116182884956319 0 0.47357141910802508 0.1873585799078378 0 0.47357141910802508 0.1873585799078378 0 0.48466639505193998 0.1421439844745814 0 0.51729576145820033 0.1683240575987815 0 0.44288491854585582 0.14116182884956319 0 0.48466639505193998 0.1421439844745814 0 0.47881186583059909 0.093591717165689425 0 0.48466639505193998 0.1421439844745814 0 0.47881186583059909 0.093591717165689425 0 0.51076801031701946 0.1202837388510348 0 0.44288491854585582 0.14116182884956319 0 0.47881186583059909 0.093591717165689425 0 0.43698630808430822 0.080423614171545449 0 0.47881186583059909 0.093591717165689425 0 0.47040171442036788 0.044141676406503738 0 0.43698630808430822 0.080423614171545449 0 0.47881186583059909 0.093591717165689425 0 0.47040171442036788 0.044141676406503738 0 0.52375890611712683 0.059318771819432882 0 0.47040171442036788 0.044141676406503738 0 0.49999999999869432 0 0 0.52375890611712683 0.059318771819432882 0 0.47040171442036788 0.044141676406503738 0 0.49999999999869432 0 0 0.44999999999882923 0 0 0.47040171442036788 0.044141676406503738 0 0.44999999999882923 0 0 0.4320097814748517 0.037406712692169303 0 0.47040171442036788 0.044141676406503738 0 0.4320097814748517 0.037406712692169303 0 0.43698630808430822 0.080423614171545449 0 0.4320097814748517 0.037406712692169303 0 0.3999999999989749 0 0 0.39591832466117061 0.056982757562006353 0 0.4320097814748517 0.037406712692169303 0 0.39591832466117061 0.056982757562006353 0 0.43698630808430822 0.080423614171545449 0 0.44999999999882923 0 0 0.4320097814748517 0.037406712692169303 0 0.3999999999989749 0 0 0.3615861437013822 0.03582617922508851 0 0.3999999999989749 0 0 0.39591832466117061 0.056982757562006353 0 0.35312867752657662 0.084946736076730367 0 0.39591832466117061 0.056982757562006353 0 0.39823268594401579 0.1116623613130045 0 0.44288491854585582 0.14116182884956319 0 0.39823268594401579 0.1116623613130045 0 0.43698630808430822 0.080423614171545449 0 0.39591832466117061 0.056982757562006353 0 0.39823268594401579 0.1116623613130045 0 0.43698630808430822 0.080423614171545449 0 0.42161023666869668 0.39493916313643851 0 0.38707855792647411 0.42299362914874578 0 0.43249999999999988 0.43937499999999979 0 0.42161023666869668 0.39493916313643851 0 0.38083244760691543 0.38531983672244652 0 0.38707855792647411 0.42299362914874578 0 0.42161023666869668 0.39493916313643851 0 0.38083244760691543 0.38531983672244652 0 0.40076539126862748 0.34589349467022118 0 0.38707855792647411 0.42299362914874578 0 0.3908716102680424 0.47010282357248828 0 0.43249999999999988 0.43937499999999979 0 0.3908716102680424 0.47010282357248828 0 0.43507373378304309 0.49699695397193322 0 0.38244435121258652 0.51653317813019495 0 0.3908716102680424 0.47010282357248828 0 0.43507373378304309 0.49699695397193322 0 0.43249999999999988 0.43937499999999979 0 0.43507373378304309 0.49699695397193322 0 0.43249999999999988 0.43937499999999979 0 0.46111841286828259 0.46690301029591341 0 0.43249999999999988 0.43937499999999979 0 0.46111841286828259 0.46690301029591341 0 0.48858720058566618 0.43964267759203868 0 0.43507373378304309 0.49699695397193322 0 0.46111841286828259 0.46690301029591341 0 0.49102375406324739 0.49123754822244059 0 0.46111841286828259 0.46690301029591341 0 0.49102375406324739 0.49123754822244059 0 0.48858720058566618 0.43964267759203868 0 0.48858720058566618 0.43964267759203868 0 0.46655310992796922 0.39650496622958609 0 0.52289427570932567 0.3932284363388488 0 0.43249999999999988 0.43937499999999979 0 0.48858720058566618 0.43964267759203868 0 0.46655310992796922 0.39650496622958609 0 0.42161023666869668 0.39493916313643851 0 0.43249999999999988 0.43937499999999979 0 0.46655310992796922 0.39650496622958609 0 0.42161023666869668 0.39493916313643851 0 0.46655310992796922 0.39650496622958609 0 0.4409427642593301 0.35743108089689513 0 0.46655310992796922 0.39650496622958609 0 0.49077833859261139 0.35229981449445641 0 0.52289427570932567 0.3932284363388488 0 0.49077833859261139 0.35229981449445641 0 0.46226845272279993 0.31901800744800313 0 0.5 0.29999999999999999 0 0.49077833859261139 0.35229981449445641 0 0.46226845272279993 0.31901800744800313 0 0.4409427642593301 0.35743108089689513 0 0.46226845272279993 0.31901800744800313 0 0.4409427642593301 0.35743108089689513 0 0.41914690343363781 0.30688979866601612 0 0.46655310992796922 0.39650496622958609 0 0.49077833859261139 0.35229981449445641 0 0.4409427642593301 0.35743108089689513 0 0.49695729691142171 0.25014895411178018 0 0.4604742573284204 0.27846934318264788 0 0.5 0.29999999999999999 0 0.46429753744194407 0.22870891180733599 0 0.49695729691142171 0.25014895411178018 0 0.4604742573284204 0.27846934318264788 0 0.46226845272279993 0.31901800744800313 0 0.4604742573284204 0.27846934318264788 0 0.5 0.29999999999999999 0 0.46226845272279993 0.31901800744800313 0 0.4604742573284204 0.27846934318264788 0 0.41914690343363781 0.30688979866601612 0 0.46429753744194407 0.22870891180733599 0 0.4604742573284204 0.27846934318264788 0 0.42377727103934271 0.25099357235810238 0 0.4604742573284204 0.27846934318264788 0 0.42377727103934271 0.25099357235810238 0 0.41914690343363781 0.30688979866601612 0 0.42377727103934271 0.25099357235810238 0 0.41914690343363781 0.30688979866601612 0 0.3786248352540974 0.27082301512024259 0 0.41914690343363781 0.30688979866601612 0 0.3786248352540974 0.27082301512024259 0 0.36575549820117997 0.31677992835137742 0 0.42161023666869668 0.39493916313643851 0 0.4409427642593301 0.35743108089689513 0 0.40076539126862748 0.34589349467022118 0 0.4409427642593301 0.35743108089689513 0 0.41914690343363781 0.30688979866601612 0 0.40076539126862748 0.34589349467022118 0 0.41914690343363781 0.30688979866601612 0 0.40076539126862748 0.34589349467022118 0 0.36575549820117997 0.31677992835137742 0 0.40076539126862748 0.34589349467022118 0 0.36575549820117997 0.31677992835137742 0 0.33277555741076909 0.36432196682010132 0 0.38083244760691543 0.38531983672244652 0 0.40076539126862748 0.34589349467022118 0 0.33277555741076909 0.36432196682010132 0 0.36575549820117997 0.31677992835137742 0 0.32752639306529541 0.32610012995269699 0 0.33277555741076909 0.36432196682010132 0 0.32752639306529541 0.32610012995269699 0 0.33277555741076909 0.36432196682010132 0 0.29644548887253103 0.34914008784168082 0 0.33758650185219202 0.23837101504325639 0 0.3786248352540974 0.27082301512024259 0 0.33402499257867951 0.28911035184473982 0 0.3786248352540974 0.27082301512024259 0 0.36575549820117997 0.31677992835137742 0 0.33402499257867951 0.28911035184473982 0 0.36575549820117997 0.31677992835137742 0 0.32752639306529541 0.32610012995269699 0 0.33402499257867951 0.28911035184473982 0 0.32752639306529541 0.32610012995269699 0 0.33402499257867951 0.28911035184473982 0 0.29348325746214782 0.31350119524708198 0 0.33758650185219202 0.23837101504325639 0 0.33402499257867951 0.28911035184473982 0 0.29132859388405002 0.27203693976649962 0 0.33402499257867951 0.28911035184473982 0 0.29132859388405002 0.27203693976649962 0 0.29348325746214782 0.31350119524708198 0 0.29132859388405002 0.27203693976649962 0 0.29348325746214782 0.31350119524708198 0 0.24432083401701241 0.3006253385567515 0 0.29132859388405002 0.27203693976649962 0 0.25195515620380449 0.25883339815888678 0 0.24432083401701241 0.3006253385567515 0 0.28040350263641872 0.23054717217092141 0 0.29132859388405002 0.27203693976649962 0 0.25195515620380449 0.25883339815888678 0 0.33277555741076909 0.36432196682010132 0 0.29644548887253103 0.34914008784168082 0 0.27866744612395528 0.38416094670951489 0 0.32752639306529541 0.32610012995269699 0 0.29644548887253103 0.34914008784168082 0 0.29348325746214782 0.31350119524708198 0 0.29644548887253103 0.34914008784168082 0 0.29348325746214782 0.31350119524708198 0 0.25966125648670141 0.34351016742083729 0 0.29348325746214782 0.31350119524708198 0 0.25966125648670141 0.34351016742083729 0 0.24432083401701241 0.3006253385567515 0 0.29644548887253103 0.34914008784168082 0 0.25966125648670141 0.34351016742083729 0 0.27866744612395528 0.38416094670951489 0 0.25966125648670141 0.34351016742083729 0 0.27866744612395528 0.38416094670951489 0 0.22033343844674469 0.36963382230740238 0 0.27866744612395528 0.38416094670951489 0 0.29124338931648802 0.43334555462578611 0 0.24049127783545701 0.41270748208749802 0 0.29124338931648802 0.43334555462578611 0 0.25982634974572738 0.46097799597715272 0 0.24049127783545701 0.41270748208749802 0 0.27866744612395528 0.38416094670951489 0 0.29124338931648802 0.43334555462578611 0 0.31778888742534622 0.40581751814196781 0 0.33277555741076909 0.36432196682010132 0 0.27866744612395528 0.38416094670951489 0 0.31778888742534622 0.40581751814196781 0 0.33277555741076909 0.36432196682010132 0 0.31778888742534622 0.40581751814196781 0 0.35221190152536241 0.40457127605439203 0 0.31778888742534622 0.40581751814196781 0 0.35221190152536241 0.40457127605439203 0 0.34258405725730701 0.4444034294386992 0 0.29124338931648802 0.43334555462578611 0 0.31778888742534622 0.40581751814196781 0 0.34258405725730701 0.4444034294386992 0 0.38707855792647411 0.42299362914874578 0 0.35221190152536241 0.40457127605439203 0 0.34258405725730701 0.4444034294386992 0 0.38083244760691543 0.38531983672244652 0 0.38707855792647411 0.42299362914874578 0 0.35221190152536241 0.40457127605439203 0 0.38083244760691543 0.38531983672244652 0 0.33277555741076909 0.36432196682010132 0 0.35221190152536241 0.40457127605439203 0 0.3908716102680424 0.47010282357248828 0 0.35024835142131061 0.48654922671676981 0 0.38244435121258652 0.51653317813019495 0 0.3908716102680424 0.47010282357248828 0 0.35024835142131061 0.48654922671676981 0 0.34258405725730701 0.4444034294386992 0 0.38707855792647411 0.42299362914874578 0 0.3908716102680424 0.47010282357248828 0 0.34258405725730701 0.4444034294386992 0 0.29124338931648802 0.43334555462578611 0 0.34258405725730701 0.4444034294386992 0 0.31068898841644388 0.47541502461811092 0 0.35024835142131061 0.48654922671676981 0 0.31068898841644388 0.47541502461811092 0 0.33190227185843768 0.52715113583864037 0 0.35024835142131061 0.48654922671676981 0 0.34258405725730701 0.4444034294386992 0 0.31068898841644388 0.47541502461811092 0 0.31068898841644388 0.47541502461811092 0 0.25982634974572738 0.46097799597715272 0 0.28307294598219601 0.50789252727458634 0 0.29124338931648802 0.43334555462578611 0 0.31068898841644388 0.47541502461811092 0 0.25982634974572738 0.46097799597715272 0 0.25982634974572738 0.46097799597715272 0 0.23975172658309729 0.49475499200540818 0 0.28307294598219601 0.50789252727458634 0 0.23975172658309729 0.49475499200540818 0 0.19604738184454831 0.47787523520405789 0 0.22278230690790279 0.44824268025881547 0 0.19604738184454831 0.47787523520405789 0 0.22278230690790279 0.44824268025881547 0 0.191953871957803 0.42546416763755879 0 0.25982634974572738 0.46097799597715272 0 0.22278230690790279 0.44824268025881547 0 0.24049127783545701 0.41270748208749802 0 0.25982634974572738 0.46097799597715272 0 0.23975172658309729 0.49475499200540818 0 0.22278230690790279 0.44824268025881547 0 0.27866744612395528 0.38416094670951489 0 0.24049127783545701 0.41270748208749802 0 0.22033343844674469 0.36963382230740238 0 0.191953871957803 0.42546416763755879 0 0.1650278706801647 0.38791388161335733 0 0.22033343844674469 0.36963382230740238 0 0.24049127783545701 0.41270748208749802 0 0.191953871957803 0.42546416763755879 0 0.22033343844674469 0.36963382230740238 0 0.22278230690790279 0.44824268025881547 0 0.24049127783545701 0.41270748208749802 0 0.191953871957803 0.42546416763755879 0 0.191953871957803 0.42546416763755879 0 0.13773355295499351 0.42497777642586831 0 0.15801167086041079 0.46008690540259539 0 0.191953871957803 0.42546416763755879 0 0.1650278706801647 0.38791388161335733 0 0.13773355295499351 0.42497777642586831 0 0.1650278706801647 0.38791388161335733 0 0.13773355295499351 0.42497777642586831 0 0.1117088112799664 0.38831403004970022 0 0.13773355295499351 0.42497777642586831 0 0.15801167086041079 0.46008690540259539 0 0.113541300460994 0.46208784312094731 0 0.15801167086041079 0.46008690540259539 0 0.113541300460994 0.46208784312094731 0 0.1216098864341134 0.50637075089503902 0 0.15801167086041079 0.46008690540259539 0 0.1216098864341134 0.50637075089503902 0 0.16618607197337229 0.50652878253548905 0 0.19604738184454831 0.47787523520405789 0 0.15801167086041079 0.46008690540259539 0 0.16618607197337229 0.50652878253548905 0 0.19604738184454831 0.47787523520405789 0 0.191953871957803 0.42546416763755879 0 0.15801167086041079 0.46008690540259539 0 0.25195515620380449 0.25883339815888678 0 0.21049769590865089 0.26857363548218488 0 0.24432083401701241 0.3006253385567515 0 0.21049769590865089 0.26857363548218488 0 0.24432083401701241 0.3006253385567515 0 0.19670163708476801 0.31472518408333222 0 0.21049769590865089 0.26857363548218488 0 0.19670163708476801 0.31472518408333222 0 0.168349569971391 0.28054490850913671 0 0.19670163708476801 0.31472518408333222 0 0.22615676742807109 0.33458786033114157 0 0.18434624290945251 0.35208838264196463 0 0.24432083401701241 0.3006253385567515 0 0.19670163708476801 0.31472518408333222 0 0.22615676742807109 0.33458786033114157 0 0.25966125648670141 0.34351016742083729 0 0.24432083401701241 0.3006253385567515 0 0.22615676742807109 0.33458786033114157 0 0.25966125648670141 0.34351016742083729 0 0.22615676742807109 0.33458786033114157 0 0.22033343844674469 0.36963382230740238 0 0.22615676742807109 0.33458786033114157 0 0.22033343844674469 0.36963382230740238 0 0.18434624290945251 0.35208838264196463 0 0.1650278706801647 0.38791388161335733 0 0.22033343844674469 0.36963382230740238 0 0.18434624290945251 0.35208838264196463 0 0.1650278706801647 0.38791388161335733 0 0.18434624290945251 0.35208838264196463 0 0.14223753364722069 0.3341983344262433 0 0.1650278706801647 0.38791388161335733 0 0.14223753364722069 0.3341983344262433 0 0.1117088112799664 0.38831403004970022 0 0.19670163708476801 0.31472518408333222 0 0.18434624290945251 0.35208838264196463 0 0.14223753364722069 0.3341983344262433 0 0.19670163708476801 0.31472518408333222 0 0.14223753364722069 0.3341983344262433 0 0.168349569971391 0.28054490850913671 0 0.14223753364722069 0.3341983344262433 0 0.168349569971391 0.28054490850913671 0 0.1247745017231483 0.27198077544791172 0 0.14377654328998779 0.2442024734791064 0 0.168349569971391 0.28054490850913671 0 0.1247745017231483 0.27198077544791172 0 0.17933913398461551 0.2350063570234002 0 0.21049769590865089 0.26857363548218488 0 0.168349569971391 0.28054490850913671 0 0.17933913398461551 0.2350063570234002 0 0.14377654328998779 0.2442024734791064 0 0.168349569971391 0.28054490850913671 0 0.095326043202144745 0.24554465089224409 0 0.093851963071650835 0.30582068233324772 0 0.049706944316556423 0.27522722923869108 0 0.095326043202144745 0.24554465089224409 0 0.14377654328998779 0.2442024734791064 0 0.1247745017231483 0.27198077544791172 0 0.095326043202144745 0.24554465089224409 0 0.1247745017231483 0.27198077544791172 0 0.093851963071650835 0.30582068233324772 0 0.14223753364722069 0.3341983344262433 0 0.1247745017231483 0.27198077544791172 0 0.093851963071650835 0.30582068233324772 0 0.093851963071650835 0.30582068233324772 0 0.046389130980076937 0.32668781832131749 0 0.049706944316556423 0.27522722923869108 0 0.093851963071650835 0.30582068233324772 0 0.087545339447545459 0.35122518864182262 0 0.046389130980076937 0.32668781832131749 0 0.14223753364722069 0.3341983344262433 0 0.093851963071650835 0.30582068233324772 0 0.087545339447545459 0.35122518864182262 0 0.14223753364722069 0.3341983344262433 0 0.087545339447545459 0.35122518864182262 0 0.1117088112799664 0.38831403004970022 0 0.087545339447545459 0.35122518864182262 0 0.1117088112799664 0.38831403004970022 0 0.050583896093752537 0.38543522283434112 0 0.087545339447545459 0.35122518864182262 0 0.046389130980076937 0.32668781832131749 0 0.050583896093752537 0.38543522283434112 0 0 0.35000000000145642 0 0.046389130980076937 0.32668781832131749 0 0.050583896093752537 0.38543522283434112 0 0 0.35000000000145642 0 0.046389130980076937 0.32668781832131749 0 0 0.30000000000124832 0 0.046389130980076937 0.32668781832131749 0 0 0.30000000000124832 0 0.049706944316556423 0.27522722923869108 0 0 0.30000000000124832 0 0 0.25000000000104028 0 0.049706944316556423 0.27522722923869108 0 0.044081577119474857 0.2271058242433576 0 0 0.25000000000104028 0 0.049706944316556423 0.27522722923869108 0 0.068743045408989428 0.48853989837882689 0 0.113541300460994 0.46208784312094731 0 0.078358742472063481 0.43365249433908948 0 0.068743045408989428 0.48853989837882689 0 0.113541300460994 0.46208784312094731 0 0.1216098864341134 0.50637075089503902 0 0.13773355295499351 0.42497777642586831 0 0.113541300460994 0.46208784312094731 0 0.078358742472063481 0.43365249433908948 0 0.13773355295499351 0.42497777642586831 0 0.1117088112799664 0.38831403004970022 0 0.078358742472063481 0.43365249433908948 0 0.1117088112799664 0.38831403004970022 0 0.078358742472063481 0.43365249433908948 0 0.050583896093752537 0.38543522283434112 0 0.078358742472063481 0.43365249433908948 0 0.035463093262830522 0.42673416072819947 0 0.050583896093752537 0.38543522283434112 0 0 0.35000000000145642 0 0.050583896093752537 0.38543522283434112 0 0 0.40000000000166441 0 0.035463093262830522 0.42673416072819947 0 0.050583896093752537 0.38543522283434112 0 0 0.40000000000166441 0 0.035463093262830522 0.42673416072819947 0 0 0.40000000000166441 0 0 0.45000000000187229 0 0.035463093262830522 0.42673416072819947 0 0 0.45000000000187229 0 0.033550201249889847 0.46247875832467239 0 0.068743045408989428 0.48853989837882689 0 0.033550201249889847 0.46247875832467239 0 0 0.50000000000205869 0 0.068743045408989428 0.48853989837882689 0 0.078358742472063481 0.43365249433908948 0 0.033550201249889847 0.46247875832467239 0 0.078358742472063481 0.43365249433908948 0 0.035463093262830522 0.42673416072819947 0 0.033550201249889847 0.46247875832467239 0 0 0.45000000000187229 0 0.033550201249889847 0.46247875832467239 0 0 0.50000000000205869 0 0.068743045408989428 0.48853989837882689 0 0 0.50000000000205869 0 0.044576108720083309 0.53509043209532614 0 0 0.50000000000205869 0 0 0.55000000000173355 0 0.044576108720083309 0.53509043209532614 0 0 0.55000000000173355 0 0.044576108720083309 0.53509043209532614 0 0.034381862692950467 0.57372682250960894 0 0.044576108720083309 0.53509043209532614 0 0.077693244765132896 0.56932317963405099 0 0.034381862692950467 0.57372682250960894 0 0.068743045408989428 0.48853989837882689 0 0.044576108720083309 0.53509043209532614 0 0.085622222639554768 0.53333248912060549 0 0.068743045408989428 0.48853989837882689 0 0.085622222639554768 0.53333248912060549 0 0.1216098864341134 0.50637075089503902 0 0.044576108720083309 0.53509043209532614 0 0.085622222639554768 0.53333248912060549 0 0.077693244765132896 0.56932317963405099 0 0.085622222639554768 0.53333248912060549 0 0.1154888278694548 0.56733818459978413 0 0.077693244765132896 0.56932317963405099 0 0.085622222639554768 0.53333248912060549 0 0.1216098864341134 0.50637075089503902 0 0.1154888278694548 0.56733818459978413 0 0.1024350934457823 0.60772393977513839 0 0.1154888278694548 0.56733818459978413 0 0.077693244765132896 0.56932317963405099 0 0.1024350934457823 0.60772393977513839 0 0.050069554451969707 0.61308520079857043 0 0.086179601630648681 0.64647209519980475 0 0.1024350934457823 0.60772393977513839 0 0.077693244765132896 0.56932317963405099 0 0.050069554451969707 0.61308520079857043 0 0.077693244765132896 0.56932317963405099 0 0.050069554451969707 0.61308520079857043 0 0.034381862692950467 0.57372682250960894 0 0 0.55000000000173355 0 0.034381862692950467 0.57372682250960894 0 0 0.60000000000138687 0 0.050069554451969707 0.61308520079857043 0 0 0.60000000000138687 0 0 0.65000000000104008 0 0.050069554451969707 0.61308520079857043 0 0.034381862692950467 0.57372682250960894 0 0 0.60000000000138687 0 0 0.65000000000104008 0 0.046634677244967337 0.671418230738282 0 0 0.7000000000006934 0 0.050069554451969707 0.61308520079857043 0 0.046634677244967337 0.671418230738282 0 0.086179601630648681 0.64647209519980475 0 0.050069554451969707 0.61308520079857043 0 0 0.65000000000104008 0 0.046634677244967337 0.671418230738282 0 0 0.7000000000006934 0 0.049706944316475897 0.72477277076253799 0 0 0.75000000000034661 0 0.046634677244967337 0.671418230738282 0 0 0.7000000000006934 0 0.049706944316475897 0.72477277076253799 0 0.049706944316475897 0.72477277076253799 0 0 0.75000000000034661 0 0.04408157711937423 0.7728941757575627 0 0.049706944316475897 0.72477277076253799 0 0.1020579365089687 0.69352219419301997 0 0.090953281884486245 0.7564451946902494 0 0.1020579365089687 0.69352219419301997 0 0.1215415378367805 0.72939333680004137 0 0.090953281884486245 0.7564451946902494 0 0.046634677244967337 0.671418230738282 0 0.049706944316475897 0.72477277076253799 0 0.1020579365089687 0.69352219419301997 0 0.1215415378367805 0.72939333680004137 0 0.090953281884486245 0.7564451946902494 0 0.14335651144331049 0.75565258250209677 0 0.046634677244967337 0.671418230738282 0 0.1020579365089687 0.69352219419301997 0 0.086179601630648681 0.64647209519980475 0 0.1020579365089687 0.69352219419301997 0 0.086179601630648681 0.64647209519980475 0 0.1241190223511371 0.64391885572885044 0 0.1024350934457823 0.60772393977513839 0 0.086179601630648681 0.64647209519980475 0 0.1241190223511371 0.64391885572885044 0 0.1020579365089687 0.69352219419301997 0 0.1241190223511371 0.64391885572885044 0 0.16500388252850301 0.66612077714085194 0 0.1241190223511371 0.64391885572885044 0 0.16500388252850301 0.66612077714085194 0 0.15720202157091859 0.60665697304410315 0 0.16500388252850301 0.66612077714085194 0 0.19914261668318661 0.62286739485272158 0 0.15720202157091859 0.60665697304410315 0 0.1020579365089687 0.69352219419301997 0 0.16500388252850301 0.66612077714085194 0 0.15332765547575641 0.71200081858233666 0 0.1215415378367805 0.72939333680004137 0 0.15332765547575641 0.71200081858233666 0 0.14335651144331049 0.75565258250209677 0 0.1020579365089687 0.69352219419301997 0 0.1215415378367805 0.72939333680004137 0 0.15332765547575641 0.71200081858233666 0 0.16500388252850301 0.66612077714085194 0 0.15332765547575641 0.71200081858233666 0 0.19068556247388771 0.71028988922845504 0 0.15332765547575641 0.71200081858233666 0 0.14335651144331049 0.75565258250209677 0 0.18269480424590959 0.75905448272264375 0 0.15332765547575641 0.71200081858233666 0 0.19068556247388771 0.71028988922845504 0 0.18269480424590959 0.75905448272264375 0 0.19068556247388771 0.71028988922845504 0 0.2248999640082178 0.72584299459689172 0 0.18269480424590959 0.75905448272264375 0 0.19068556247388771 0.71028988922845504 0 0.2248999640082178 0.72584299459689172 0 0.2236846579037573 0.67380363126050236 0 0.2248999640082178 0.72584299459689172 0 0.2236846579037573 0.67380363126050236 0 0.26439878998046262 0.7048065392091396 0 0.2248999640082178 0.72584299459689172 0 0.22556077506376701 0.77837424984191617 0 0.25676291524611189 0.7436741304886243 0 0.2248999640082178 0.72584299459689172 0 0.25676291524611189 0.7436741304886243 0 0.26439878998046262 0.7048065392091396 0 0.16500388252850301 0.66612077714085194 0 0.2236846579037573 0.67380363126050236 0 0.19914261668318661 0.62286739485272158 0 0.16500388252850301 0.66612077714085194 0 0.19068556247388771 0.71028988922845504 0 0.2236846579037573 0.67380363126050236 0 0.2236846579037573 0.67380363126050236 0 0.2459498854893499 0.63248470766216769 0 0.19914261668318661 0.62286739485272158 0 0.2236846579037573 0.67380363126050236 0 0.2459498854893499 0.63248470766216769 0 0.27820712747429932 0.65530134213254643 0 0.2459498854893499 0.63248470766216769 0 0.19914261668318661 0.62286739485272158 0 0.22549374774072969 0.58452645269293457 0 0.2459498854893499 0.63248470766216769 0 0.22549374774072969 0.58452645269293457 0 0.26573297623774761 0.59828298563722948 0 0.19914261668318661 0.62286739485272158 0 0.22549374774072969 0.58452645269293457 0 0.18381867841758909 0.57774125163628387 0 0.22549374774072969 0.58452645269293457 0 0.20050006573841939 0.53248514016039872 0 0.18381867841758909 0.57774125163628387 0 0.22549374774072969 0.58452645269293457 0 0.25115337790845271 0.54719303014923271 0 0.26573297623774761 0.59828298563722948 0 0.22549374774072969 0.58452645269293457 0 0.20050006573841939 0.53248514016039872 0 0.25115337790845271 0.54719303014923271 0 0.23975172658309729 0.49475499200540818 0 0.20050006573841939 0.53248514016039872 0 0.25115337790845271 0.54719303014923271 0 0.19604738184454831 0.47787523520405789 0 0.20050006573841939 0.53248514016039872 0 0.16618607197337229 0.50652878253548905 0 0.23975172658309729 0.49475499200540818 0 0.19604738184454831 0.47787523520405789 0 0.20050006573841939 0.53248514016039872 0 0.20050006573841939 0.53248514016039872 0 0.14934928745814749 0.55042914607228977 0 0.18381867841758909 0.57774125163628387 0 0.20050006573841939 0.53248514016039872 0 0.16618607197337229 0.50652878253548905 0 0.14934928745814749 0.55042914607228977 0 0.1216098864341134 0.50637075089503902 0 0.16618607197337229 0.50652878253548905 0 0.14934928745814749 0.55042914607228977 0 0.1216098864341134 0.50637075089503902 0 0.1154888278694548 0.56733818459978413 0 0.14934928745814749 0.55042914607228977 0 0.1154888278694548 0.56733818459978413 0 0.14934928745814749 0.55042914607228977 0 0.15720202157091859 0.60665697304410315 0 0.1024350934457823 0.60772393977513839 0 0.1154888278694548 0.56733818459978413 0 0.15720202157091859 0.60665697304410315 0 0.1024350934457823 0.60772393977513839 0 0.1241190223511371 0.64391885572885044 0 0.15720202157091859 0.60665697304410315 0 0.19914261668318661 0.62286739485272158 0 0.15720202157091859 0.60665697304410315 0 0.18381867841758909 0.57774125163628387 0 0.14934928745814749 0.55042914607228977 0 0.15720202157091859 0.60665697304410315 0 0.18381867841758909 0.57774125163628387 0 0.10000000000041601 1 0 0.10266856499240549 0.95548163909968886 0 0.15000000000062411 1 0 0.10266856499240549 0.95548163909968886 0 0.053064897599294662 0.95186845269532028 0 0.083411279318375747 0.91030024466934134 0 0.10000000000041601 1 0 0.050000000000207989 1 0 0.053064897599294662 0.95186845269532028 0 0.10000000000041601 1 0 0.10266856499240549 0.95548163909968886 0 0.053064897599294662 0.95186845269532028 0 0.050000000000207989 1 0 0.025766224399875661 0.97546711317377799 0 0.053064897599294662 0.95186845269532028 0 0.050000000000207989 1 0 0 1 0 0.025766224399875661 0.97546711317377799 0 0 1 0 0.025766224399875661 0.97546711317377799 0 0 0.94999999999979179 0 0.025766224399875661 0.97546711317377799 0 0 0.94999999999979179 0 0.053064897599294662 0.95186845269532028 0 0 0.94999999999979179 0 0.053064897599294662 0.95186845269532028 0 0.0443105827531413 0.89858748162559932 0 0.053064897599294662 0.95186845269532028 0 0.0443105827531413 0.89858748162559932 0 0.083411279318375747 0.91030024466934134 0 0 0.94999999999979179 0 0 0.89999999999958358 0 0.0443105827531413 0.89858748162559932 0 0 0.89999999999958358 0 0.0443105827531413 0.89858748162559932 0 0 0.84999999999965292 0 0.0443105827531413 0.89858748162559932 0 0.083411279318375747 0.91030024466934134 0 0.065374659239661639 0.8551091961254178 0 0.083411279318375747 0.91030024466934134 0 0.10562472963403439 0.87143394428979881 0 0.065374659239661639 0.8551091961254178 0 0.10266856499240549 0.95548163909968886 0 0.083411279318375747 0.91030024466934134 0 0.1241151115713819 0.9045666525468371 0 0.10266856499240549 0.95548163909968886 0 0.1241151115713819 0.9045666525468371 0 0.14617343800780541 0.93808063414349496 0 0.1241151115713819 0.9045666525468371 0 0.10562472963403439 0.87143394428979881 0 0.14474682429600511 0.85524784522713515 0 0.083411279318375747 0.91030024466934134 0 0.1241151115713819 0.9045666525468371 0 0.10562472963403439 0.87143394428979881 0 0.10562472963403439 0.87143394428979881 0 0.1074251789111534 0.83564394292147814 0 0.14474682429600511 0.85524784522713515 0 0.1074251789111534 0.83564394292147814 0 0.065374659239661639 0.8551091961254178 0 0.083105206071452636 0.79992298667296435 0 0.10562472963403439 0.87143394428979881 0 0.1074251789111534 0.83564394292147814 0 0.065374659239661639 0.8551091961254178 0 0.065374659239661639 0.8551091961254178 0 0 0.84999999999965292 0 0.038512288486097702 0.8155852717111195 0 0.0443105827531413 0.89858748162559932 0 0.065374659239661639 0.8551091961254178 0 0 0.84999999999965292 0 0 0.84999999999965292 0 0.038512288486097702 0.8155852717111195 0 0 0.79999999999999982 0 0.065374659239661639 0.8551091961254178 0 0.038512288486097702 0.8155852717111195 0 0.083105206071452636 0.79992298667296435 0 0.038512288486097702 0.8155852717111195 0 0.04408157711937423 0.7728941757575627 0 0.083105206071452636 0.79992298667296435 0 0.038512288486097702 0.8155852717111195 0 0 0.79999999999999982 0 0.04408157711937423 0.7728941757575627 0 0 0.79999999999999982 0 0 0.75000000000034661 0 0.04408157711937423 0.7728941757575627 0 0.049706944316475897 0.72477277076253799 0 0.04408157711937423 0.7728941757575627 0 0.090953281884486245 0.7564451946902494 0 0.04408157711937423 0.7728941757575627 0 0.090953281884486245 0.7564451946902494 0 0.083105206071452636 0.79992298667296435 0 0.1074251789111534 0.83564394292147814 0 0.083105206071452636 0.79992298667296435 0 0.1382744753146134 0.79650574229207483 0 0.090953281884486245 0.7564451946902494 0 0.083105206071452636 0.79992298667296435 0 0.1382744753146134 0.79650574229207483 0 0.090953281884486245 0.7564451946902494 0 0.14335651144331049 0.75565258250209677 0 0.1382744753146134 0.79650574229207483 0 0.14335651144331049 0.75565258250209677 0 0.1382744753146134 0.79650574229207483 0 0.18269480424590959 0.75905448272264375 0 0.1382744753146134 0.79650574229207483 0 0.18269480424590959 0.75905448272264375 0 0.17777405986036951 0.81832336108265358 0 0.2248999640082178 0.72584299459689172 0 0.18269480424590959 0.75905448272264375 0 0.22556077506376701 0.77837424984191617 0 0.22556077506376701 0.77837424984191617 0 0.21858834311891909 0.81980263716112767 0 0.26104540868854792 0.81401944968719064 0 0.22556077506376701 0.77837424984191617 0 0.21858834311891909 0.81980263716112767 0 0.17777405986036951 0.81832336108265358 0 0.18269480424590959 0.75905448272264375 0 0.22556077506376701 0.77837424984191617 0 0.17777405986036951 0.81832336108265358 0 0.21858834311891909 0.81980263716112767 0 0.19741632902693801 0.86755867406447229 0 0.17777405986036951 0.81832336108265358 0 0.21858834311891909 0.81980263716112767 0 0.2401283238295133 0.85648409884788523 0 0.26104540868854792 0.81401944968719064 0 0.21858834311891909 0.81980263716112767 0 0.2401283238295133 0.85648409884788523 0 0.19741632902693801 0.86755867406447229 0 0.19741632902693801 0.86755867406447229 0 0.17777405986036951 0.81832336108265358 0 0.14474682429600511 0.85524784522713515 0 0.19741632902693801 0.86755867406447229 0 0.14474682429600511 0.85524784522713515 0 0.16206583317966519 0.89685560785156404 0 0.1382744753146134 0.79650574229207483 0 0.17777405986036951 0.81832336108265358 0 0.14474682429600511 0.85524784522713515 0 0.1074251789111534 0.83564394292147814 0 0.1382744753146134 0.79650574229207483 0 0.14474682429600511 0.85524784522713515 0 0.1241151115713819 0.9045666525468371 0 0.14474682429600511 0.85524784522713515 0 0.16206583317966519 0.89685560785156404 0 0.1241151115713819 0.9045666525468371 0 0.16206583317966519 0.89685560785156404 0 0.14617343800780541 0.93808063414349496 0 0.16206583317966519 0.89685560785156404 0 0.19901705110390991 0.9175543425573498 0 0.14617343800780541 0.93808063414349496 0 0.19741632902693801 0.86755867406447229 0 0.16206583317966519 0.89685560785156404 0 0.19901705110390991 0.9175543425573498 0 0.19741632902693801 0.86755867406447229 0 0.24536017905392571 0.90704567837671446 0 0.19901705110390991 0.9175543425573498 0 0.2401283238295133 0.85648409884788523 0 0.19741632902693801 0.86755867406447229 0 0.24536017905392571 0.90704567837671446 0 0.24536017905392571 0.90704567837671446 0 0.19901705110390991 0.9175543425573498 0 0.22850979588452081 0.95594428570238643 0 0.19901705110390991 0.9175543425573498 0 0.22850979588452081 0.95594428570238643 0 0.18474005699953849 0.96231585248064622 0 0.24536017905392571 0.90704567837671446 0 0.22850979588452081 0.95594428570238643 0 0.27609987656793722 0.94991445621608572 0 0.22850979588452081 0.95594428570238643 0 0.20000000000083221 1 0 0.25000000000104028 1 0 0.22850979588452081 0.95594428570238643 0 0.20000000000083221 1 0 0.18474005699953849 0.96231585248064622 0 0.20000000000083221 1 0 0.18474005699953849 0.96231585248064622 0 0.15000000000062411 1 0 0.19901705110390991 0.9175543425573498 0 0.18474005699953849 0.96231585248064622 0 0.14617343800780541 0.93808063414349496 0 0.18474005699953849 0.96231585248064622 0 0.14617343800780541 0.93808063414349496 0 0.15000000000062411 1 0 0.10266856499240549 0.95548163909968886 0 0.14617343800780541 0.93808063414349496 0 0.15000000000062411 1 0 0.35000000000145642 1 0 0.36184234618600131 0.96443954459096326 0 0.32544832635163229 0.95485394099568932 0 0.35000000000145642 1 0 0.36184234618600131 0.96443954459096326 0 0.40000000000166441 1 0 0.36184234618600131 0.96443954459096326 0 0.32544832635163229 0.95485394099568932 0 0.35752321586431363 0.9185439911803448 0 0.36184234618600131 0.96443954459096326 0 0.35752321586431363 0.9185439911803448 0 0.39641108128798319 0.94356127926187128 0 0.35000000000145642 1 0 0.32544832635163229 0.95485394099568932 0 0.30000000000124832 1 0 0.30000000000124832 1 0 0.25000000000104028 1 0 0.27609987656793722 0.94991445621608572 0 0.22850979588452081 0.95594428570238643 0 0.25000000000104028 1 0 0.27609987656793722 0.94991445621608572 0 0.32544832635163229 0.95485394099568932 0 0.30000000000124832 1 0 0.27609987656793722 0.94991445621608572 0 0.32544832635163229 0.95485394099568932 0 0.27609987656793722 0.94991445621608572 0 0.30864387279288652 0.89906554525974958 0 0.24536017905392571 0.90704567837671446 0 0.27270076654418179 0.87751467830216623 0 0.30864387279288652 0.89906554525974958 0 0.24536017905392571 0.90704567837671446 0 0.27609987656793722 0.94991445621608572 0 0.30864387279288652 0.89906554525974958 0 0.2401283238295133 0.85648409884788523 0 0.24536017905392571 0.90704567837671446 0 0.27270076654418179 0.87751467830216623 0 0.30864387279288652 0.89906554525974958 0 0.35752321586431363 0.9185439911803448 0 0.35864759629805099 0.87963482415279515 0 0.32544832635163229 0.95485394099568932 0 0.30864387279288652 0.89906554525974958 0 0.35752321586431363 0.9185439911803448 0 0.35752321586431363 0.9185439911803448 0 0.35864759629805099 0.87963482415279515 0 0.39767323751400468 0.89584229130535065 0 0.35864759629805099 0.87963482415279515 0 0.33403534827021109 0.84402799729020661 0 0.39536230704883951 0.84069429572832477 0 0.33403534827021109 0.84402799729020661 0 0.35642984951668422 0.80994399665655703 0 0.39536230704883951 0.84069429572832477 0 0.33403534827021109 0.84402799729020661 0 0.30857225866488791 0.81101973481716805 0 0.35642984951668422 0.80994399665655703 0 0.30864387279288652 0.89906554525974958 0 0.35864759629805099 0.87963482415279515 0 0.33403534827021109 0.84402799729020661 0 0.30864387279288652 0.89906554525974958 0 0.33403534827021109 0.84402799729020661 0 0.29209212897034281 0.84715728365233667 0 0.27270076654418179 0.87751467830216623 0 0.30864387279288652 0.89906554525974958 0 0.29209212897034281 0.84715728365233667 0 0.2401283238295133 0.85648409884788523 0 0.27270076654418179 0.87751467830216623 0 0.29209212897034281 0.84715728365233667 0 0.2401283238295133 0.85648409884788523 0 0.29209212897034281 0.84715728365233667 0 0.26104540868854792 0.81401944968719064 0 0.29209212897034281 0.84715728365233667 0 0.26104540868854792 0.81401944968719064 0 0.30857225866488791 0.81101973481716805 0 0.33403534827021109 0.84402799729020661 0 0.29209212897034281 0.84715728365233667 0 0.30857225866488791 0.81101973481716805 0 0.26104540868854792 0.81401944968719064 0 0.30857225866488791 0.81101973481716805 0 0.2792923945214143 0.77665808831789485 0 0.30857225866488791 0.81101973481716805 0 0.2792923945214143 0.77665808831789485 0 0.33123028043633618 0.77629643437932982 0 0.22556077506376701 0.77837424984191617 0 0.26104540868854792 0.81401944968719064 0 0.2792923945214143 0.77665808831789485 0 0.2792923945214143 0.77665808831789485 0 0.25676291524611189 0.7436741304886243 0 0.29904318922293632 0.74132814928635593 0 0.22556077506376701 0.77837424984191617 0 0.2792923945214143 0.77665808831789485 0 0.25676291524611189 0.7436741304886243 0 0.2792923945214143 0.77665808831789485 0 0.33123028043633618 0.77629643437932982 0 0.29904318922293632 0.74132814928635593 0 0.33123028043633618 0.77629643437932982 0 0.29904318922293632 0.74132814928635593 0 0.35415581127540569 0.73730480045900215 0 0.30857225866488791 0.81101973481716805 0 0.33123028043633618 0.77629643437932982 0 0.35642984951668422 0.80994399665655703 0 0.33123028043633618 0.77629643437932982 0 0.35642984951668422 0.80994399665655703 0 0.38586766253264881 0.78219501014812498 0 0.33123028043633618 0.77629643437932982 0 0.38586766253264881 0.78219501014812498 0 0.35415581127540569 0.73730480045900215 0 0.38586766253264881 0.78219501014812498 0 0.42676259796334498 0.76772545931379299 0 0.40326160981139969 0.73346192995102844 0 0.38586766253264881 0.78219501014812498 0 0.35415581127540569 0.73730480045900215 0 0.40326160981139969 0.73346192995102844 0 0.38586766253264881 0.78219501014812498 0 0.42609163930740518 0.80361684430568059 0 0.39536230704883951 0.84069429572832477 0 0.35642984951668422 0.80994399665655703 0 0.38586766253264881 0.78219501014812498 0 0.39536230704883951 0.84069429572832477 0 0.38586766253264881 0.78219501014812498 0 0.42609163930740518 0.80361684430568059 0 0.42676259796334498 0.76772545931379299 0 0.42676259796334498 0.76772545931379299 0 0.4656888918609538 0.78493261229743638 0 0.45582236402875981 0.73896743678908217 0 0.4656888918609538 0.78493261229743638 0 0.45582236402875981 0.73896743678908217 0 0.50945740445113552 0.75476055527778108 0 0.4656888918609538 0.78493261229743638 0 0.50731287292894423 0.78963574450233831 0 0.50945740445113552 0.75476055527778108 0 0.4656888918609538 0.78493261229743638 0 0.50627822638148745 0.8263979829520941 0 0.50731287292894423 0.78963574450233831 0 0.42609163930740518 0.80361684430568059 0 0.4656888918609538 0.78493261229743638 0 0.45677673713123867 0.84253684404072415 0 0.42609163930740518 0.80361684430568059 0 0.42676259796334498 0.76772545931379299 0 0.4656888918609538 0.78493261229743638 0 0.4656888918609538 0.78493261229743638 0 0.45677673713123867 0.84253684404072415 0 0.50627822638148745 0.8263979829520941 0 0.45677673713123867 0.84253684404072415 0 0.50202631463681879 0.87892870825713787 0 0.50627822638148745 0.8263979829520941 0 0.45677673713123867 0.84253684404072415 0 0.44003836461056539 0.88093474584252718 0 0.50202631463681879 0.87892870825713787 0 0.45677673713123867 0.84253684404072415 0 0.39536230704883951 0.84069429572832477 0 0.44003836461056539 0.88093474584252718 0 0.39536230704883951 0.84069429572832477 0 0.39767323751400468 0.89584229130535065 0 0.44003836461056539 0.88093474584252718 0 0.42609163930740518 0.80361684430568059 0 0.45677673713123867 0.84253684404072415 0 0.39536230704883951 0.84069429572832477 0 0.35864759629805099 0.87963482415279515 0 0.39536230704883951 0.84069429572832477 0 0.39767323751400468 0.89584229130535065 0 0.35752321586431363 0.9185439911803448 0 0.39767323751400468 0.89584229130535065 0 0.39641108128798319 0.94356127926187128 0 0.39767323751400468 0.89584229130535065 0 0.4367309254023824 0.92065556789053882 0 0.39641108128798319 0.94356127926187128 0 0.39767323751400468 0.89584229130535065 0 0.4367309254023824 0.92065556789053882 0 0.44003836461056539 0.88093474584252718 0 0.4367309254023824 0.92065556789053882 0 0.44003836461056539 0.88093474584252718 0 0.47401147028110507 0.91529957330468115 0 0.44003836461056539 0.88093474584252718 0 0.47401147028110507 0.91529957330468115 0 0.50202631463681879 0.87892870825713787 0 0.47401147028110507 0.91529957330468115 0 0.47135117303824892 0.95556877749289892 0 0.52122150208832174 0.94089974453840242 0 0.47401147028110507 0.91529957330468115 0 0.52122150208832174 0.94089974453840242 0 0.50202631463681879 0.87892870825713787 0 0.4367309254023824 0.92065556789053882 0 0.47401147028110507 0.91529957330468115 0 0.47135117303824892 0.95556877749289892 0 0.4367309254023824 0.92065556789053882 0 0.47135117303824892 0.95556877749289892 0 0.4308986359464303 0.96395712492906194 0 0.47135117303824892 0.95556877749289892 0 0.50000000000205869 1 0 0.52122150208832174 0.94089974453840242 0 0.47135117303824892 0.95556877749289892 0 0.45000000000187229 1 0 0.50000000000205869 1 0 0.47135117303824892 0.95556877749289892 0 0.45000000000187229 1 0 0.4308986359464303 0.96395712492906194 0 0.45000000000187229 1 0 0.4308986359464303 0.96395712492906194 0 0.40000000000166441 1 0 0.4308986359464303 0.96395712492906194 0 0.39641108128798319 0.94356127926187128 0 0.40000000000166441 1 0 0.4367309254023824 0.92065556789053882 0 0.4308986359464303 0.96395712492906194 0 0.39641108128798319 0.94356127926187128 0 0.36184234618600131 0.96443954459096326 0 0.39641108128798319 0.94356127926187128 0 0.40000000000166441 1 0 0.33122374654748771 0.57588941099433744 0 0.31502927232353312 0.6134992213375432 0 0.35765792684946668 0.6000687869219653 0 0.31502927232353312 0.6134992213375432 0 0.35765792684946668 0.6000687869219653 0 0.35864735590330371 0.63903383440414463 0 0.35765792684946668 0.6000687869219653 0 0.35864735590330371 0.63903383440414463 0 0.39743091024207589 0.6239520004230239 0 0.33122374654748771 0.57588941099433744 0 0.35765792684946668 0.6000687869219653 0 0.37272913873093971 0.56192925302619479 0 0.37272913873093971 0.56192925302619479 0 0.33190227185843768 0.52715113583864037 0 0.38244435121258652 0.51653317813019495 0 0.33122374654748771 0.57588941099433744 0 0.37272913873093971 0.56192925302619479 0 0.33190227185843768 0.52715113583864037 0 0.35024835142131061 0.48654922671676981 0 0.33190227185843768 0.52715113583864037 0 0.38244435121258652 0.51653317813019495 0 0.33122374654748771 0.57588941099433744 0 0.33190227185843768 0.52715113583864037 0 0.29110487519241501 0.56588143995431495 0 0.33190227185843768 0.52715113583864037 0 0.28307294598219601 0.50789252727458634 0 0.29110487519241501 0.56588143995431495 0 0.31068898841644388 0.47541502461811092 0 0.33190227185843768 0.52715113583864037 0 0.28307294598219601 0.50789252727458634 0 0.23975172658309729 0.49475499200540818 0 0.28307294598219601 0.50789252727458634 0 0.25115337790845271 0.54719303014923271 0 0.28307294598219601 0.50789252727458634 0 0.25115337790845271 0.54719303014923271 0 0.29110487519241501 0.56588143995431495 0 0.25115337790845271 0.54719303014923271 0 0.29110487519241501 0.56588143995431495 0 0.26573297623774761 0.59828298563722948 0 0.33122374654748771 0.57588941099433744 0 0.31502927232353312 0.6134992213375432 0 0.29110487519241501 0.56588143995431495 0 0.31502927232353312 0.6134992213375432 0 0.29110487519241501 0.56588143995431495 0 0.26573297623774761 0.59828298563722948 0 0.31502927232353312 0.6134992213375432 0 0.26573297623774761 0.59828298563722948 0 0.27820712747429932 0.65530134213254643 0 0.2459498854893499 0.63248470766216769 0 0.26573297623774761 0.59828298563722948 0 0.27820712747429932 0.65530134213254643 0 0.2236846579037573 0.67380363126050236 0 0.27820712747429932 0.65530134213254643 0 0.26439878998046262 0.7048065392091396 0 0.27820712747429932 0.65530134213254643 0 0.31378396441836959 0.70157213313026345 0 0.32263089806001177 0.66003674931826484 0 0.27820712747429932 0.65530134213254643 0 0.26439878998046262 0.7048065392091396 0 0.31378396441836959 0.70157213313026345 0 0.31502927232353312 0.6134992213375432 0 0.27820712747429932 0.65530134213254643 0 0.32263089806001177 0.66003674931826484 0 0.25676291524611189 0.7436741304886243 0 0.26439878998046262 0.7048065392091396 0 0.29904318922293632 0.74132814928635593 0 0.26439878998046262 0.7048065392091396 0 0.29904318922293632 0.74132814928635593 0 0.31378396441836959 0.70157213313026345 0 0.29904318922293632 0.74132814928635593 0 0.31378396441836959 0.70157213313026345 0 0.35415581127540569 0.73730480045900215 0 0.31378396441836959 0.70157213313026345 0 0.36622285152418499 0.69092437780804039 0 0.35415581127540569 0.73730480045900215 0 0.36622285152418499 0.69092437780804039 0 0.35415581127540569 0.73730480045900215 0 0.40326160981139969 0.73346192995102844 0 0.31502927232353312 0.6134992213375432 0 0.32263089806001177 0.66003674931826484 0 0.35864735590330371 0.63903383440414463 0 0.31378396441836959 0.70157213313026345 0 0.36622285152418499 0.69092437780804039 0 0.32263089806001177 0.66003674931826484 0 0.36622285152418499 0.69092437780804039 0 0.32263089806001177 0.66003674931826484 0 0.35864735590330371 0.63903383440414463 0 0.36622285152418499 0.69092437780804039 0 0.35864735590330371 0.63903383440414463 0 0.3977710372045391 0.65868194622830212 0 0.35864735590330371 0.63903383440414463 0 0.3977710372045391 0.65868194622830212 0 0.39743091024207589 0.6239520004230239 0 0.36622285152418499 0.69092437780804039 0 0.3977710372045391 0.65868194622830212 0 0.43323420005758778 0.6913544522562407 0 0.3977710372045391 0.65868194622830212 0 0.43323420005758778 0.6913544522562407 0 0.43846182030517877 0.64845797726506715 0 0.43846182030517877 0.64845797726506715 0 0.43545892161006339 0.61093128915313821 0 0.39743091024207589 0.6239520004230239 0 0.3977710372045391 0.65868194622830212 0 0.43846182030517877 0.64845797726506715 0 0.39743091024207589 0.6239520004230239 0 0.36622285152418499 0.69092437780804039 0 0.40326160981139969 0.73346192995102844 0 0.43323420005758778 0.6913544522562407 0 0.40326160981139969 0.73346192995102844 0 0.43323420005758778 0.6913544522562407 0 0.45582236402875981 0.73896743678908217 0 0.42676259796334498 0.76772545931379299 0 0.40326160981139969 0.73346192995102844 0 0.45582236402875981 0.73896743678908217 0 0.43323420005758778 0.6913544522562407 0 0.45582236402875981 0.73896743678908217 0 0.5 0.69999999999999996 0 0.45582236402875981 0.73896743678908217 0 0.5 0.69999999999999996 0 0.50945740445113552 0.75476055527778108 0 0.43323420005758778 0.6913544522562407 0 0.47913475093885149 0.66010775372412711 0 0.5 0.69999999999999996 0 0.43846182030517877 0.64845797726506715 0 0.47913475093885149 0.66010775372412711 0 0.47095389620662098 0.61892551373708504 0 0.43846182030517877 0.64845797726506715 0 0.47095389620662098 0.61892551373708504 0 0.43545892161006339 0.61093128915313821 0 0.43323420005758778 0.6913544522562407 0 0.43846182030517877 0.64845797726506715 0 0.47913475093885149 0.66010775372412711 0 0.47913475093885149 0.66010775372412711 0 0.47095389620662098 0.61892551373708504 0 0.50715858906372158 0.63295939104129484 0 0.47095389620662098 0.61892551373708504 0 0.5166924242153631 0.59825134841919447 0 0.50715858906372158 0.63295939104129484 0 0.47095389620662098 0.61892551373708504 0 0.46666084890304671 0.57634471035397938 0 0.5166924242153631 0.59825134841919447 0 0.47095389620662098 0.61892551373708504 0 0.46666084890304671 0.57634471035397938 0 0.43545892161006339 0.61093128915313821 0 0.43545892161006339 0.61093128915313821 0 0.4089290844030305 0.58728915500154233 0 0.39743091024207589 0.6239520004230239 0 0.46666084890304671 0.57634471035397938 0 0.43545892161006339 0.61093128915313821 0 0.4089290844030305 0.58728915500154233 0 0.46666084890304671 0.57634471035397938 0 0.4089290844030305 0.58728915500154233 0 0.42644501560315817 0.54603747078095544 0 0.37272913873093971 0.56192925302619479 0 0.4089290844030305 0.58728915500154233 0 0.42644501560315817 0.54603747078095544 0 0.35765792684946668 0.6000687869219653 0 0.37272913873093971 0.56192925302619479 0 0.4089290844030305 0.58728915500154233 0 0.35765792684946668 0.6000687869219653 0 0.4089290844030305 0.58728915500154233 0 0.39743091024207589 0.6239520004230239 0 0.37272913873093971 0.56192925302619479 0 0.38244435121258652 0.51653317813019495 0 0.42644501560315817 0.54603747078095544 0 0.43507373378304309 0.49699695397193322 0 0.38244435121258652 0.51653317813019495 0 0.42644501560315817 0.54603747078095544 0 0.46666084890304671 0.57634471035397938 0 0.47793794143994173 0.52940715638744962 0 0.53245488764484505 0.55078124999999989 0 0.43507373378304309 0.49699695397193322 0 0.49102375406324739 0.49123754822244059 0 0.47793794143994173 0.52940715638744962 0 0.43507373378304309 0.49699695397193322 0 0.42644501560315817 0.54603747078095544 0 0.47793794143994173 0.52940715638744962 0 0.46666084890304671 0.57634471035397938 0 0.42644501560315817 0.54603747078095544 0 0.47793794143994173 0.52940715638744962 0 0.49102375406324739 0.49123754822244059 0 0.47793794143994173 0.52940715638744962 0 0.53330375813596242 0.50827942741749099 0 0.47793794143994173 0.52940715638744962 0 0.53245488764484505 0.55078124999999989 0 0.53330375813596242 0.50827942741749099 0 0.53245488764484505 0.55078124999999989 0 0.53330375813596242 0.50827942741749099 0 0.57435499076887508 0.54267261987897775 0 0.53245488764484505 0.55078124999999989 0 0.57435499076887508 0.54267261987897775 0 0.57412547362576272 0.58273804879550706 0 0.53330375813596242 0.50827942741749099 0 0.57611405284611883 0.50165903596042916 0 0.57435499076887508 0.54267261987897775 0 0.57611405284611883 0.50165903596042916 0 0.57435499076887508 0.54267261987897775 0 0.62042975506801734 0.54295974692364424 0 0.57435499076887508 0.54267261987897775 0 0.62042975506801734 0.54295974692364424 0 0.57412547362576272 0.58273804879550706 0 0.57611405284611883 0.50165903596042916 0 0.62042975506801734 0.54295974692364424 0 0.61547661924074692 0.48539576058873962 0 0.5991018319127801 0.62925360607495295 0 0.6405463747586706 0.63290524857395714 0 0.63065402604362242 0.59661356661633302 0 0.57412547362576272 0.58273804879550706 0 0.5991018319127801 0.62925360607495295 0 0.63065402604362242 0.59661356661633302 0 0.62042975506801734 0.54295974692364424 0 0.57412547362576272 0.58273804879550706 0 0.63065402604362242 0.59661356661633302 0 0.57412547362576272 0.58273804879550706 0 0.5498280205245758 0.6290146943450976 0 0.5991018319127801 0.62925360607495295 0 0.46666084890304671 0.57634471035397938 0 0.53245488764484505 0.55078124999999989 0 0.5166924242153631 0.59825134841919447 0 0.57412547362576272 0.58273804879550706 0 0.5166924242153631 0.59825134841919447 0 0.5498280205245758 0.6290146943450976 0 0.53245488764484505 0.55078124999999989 0 0.57412547362576272 0.58273804879550706 0 0.5166924242153631 0.59825134841919447 0 0.5166924242153631 0.59825134841919447 0 0.50715858906372158 0.63295939104129484 0 0.5498280205245758 0.6290146943450976 0 0.47913475093885149 0.66010775372412711 0 0.50715858906372158 0.63295939104129484 0 0.52584555706968406 0.66664215091846768 0 0.50715858906372158 0.63295939104129484 0 0.52584555706968406 0.66664215091846768 0 0.5498280205245758 0.6290146943450976 0 0.47913475093885149 0.66010775372412711 0 0.52584555706968406 0.66664215091846768 0 0.5 0.69999999999999996 0 0.52584555706968406 0.66664215091846768 0 0.54999999999999993 0.69999999999999996 0 0.57484956128872922 0.66573805030881994 0 0.52584555706968406 0.66664215091846768 0 0.5498280205245758 0.6290146943450976 0 0.57484956128872922 0.66573805030881994 0 0.5 0.69999999999999996 0 0.55363780716230748 0.74348740161571747 0 0.50945740445113552 0.75476055527778108 0 0.52584555706968406 0.66664215091846768 0 0.5 0.69999999999999996 0 0.54999999999999993 0.69999999999999996 0 0.5 0.69999999999999996 0 0.54999999999999993 0.69999999999999996 0 0.5 0.69999999999999996 0 0.54999999999999993 0.69999999999999996 0 0.55363780716230748 0.74348740161571747 0 0.55363780716230748 0.74348740161571747 0 0.59999999999999976 0.69999999999999996 0 0.59636844454254345 0.75937156204589151 0 0.54999999999999993 0.69999999999999996 0 0.59999999999999976 0.69999999999999996 0 0.54999999999999993 0.69999999999999996 0 0.59999999999999976 0.69999999999999996 0 0.57484956128872922 0.66573805030881994 0 0.54999999999999993 0.69999999999999996 0 0.55363780716230748 0.74348740161571747 0 0.59999999999999976 0.69999999999999996 0 0.59999999999999976 0.69999999999999996 0 0.6499999999999998 0.69999999999999996 0 0.59999999999999976 0.69999999999999996 0 0.62460753523532009 0.66851202781000296 0 0.6499999999999998 0.69999999999999996 0 0.59999999999999976 0.69999999999999996 0 0.63221990677827677 0.73442891067859706 0 0.59636844454254345 0.75937156204589151 0 0.5498280205245758 0.6290146943450976 0 0.57484956128872922 0.66573805030881994 0 0.5991018319127801 0.62925360607495295 0 0.59999999999999976 0.69999999999999996 0 0.57484956128872922 0.66573805030881994 0 0.62460753523532009 0.66851202781000296 0 0.57484956128872922 0.66573805030881994 0 0.62460753523532009 0.66851202781000296 0 0.5991018319127801 0.62925360607495295 0 0.62460753523532009 0.66851202781000296 0 0.5991018319127801 0.62925360607495295 0 0.6405463747586706 0.63290524857395714 0 0.62460753523532009 0.66851202781000296 0 0.6405463747586706 0.63290524857395714 0 0.675261390228442 0.65996937624687813 0 0.62460753523532009 0.66851202781000296 0 0.675261390228442 0.65996937624687813 0 0.6499999999999998 0.69999999999999996 0 0.675261390228442 0.65996937624687813 0 0.6499999999999998 0.69999999999999996 0 0.69999999999999984 0.69999999999999996 0 0.6405463747586706 0.63290524857395714 0 0.675261390228442 0.65996937624687813 0 0.67529834988829951 0.61613270668143583 0 0.63221990677827677 0.73442891067859706 0 0.66427993341343905 0.73232764502436276 0 0.64753070846764316 0.77332939069435502 0 0.63221990677827677 0.73442891067859706 0 0.6499999999999998 0.69999999999999996 0 0.66427993341343905 0.73232764502436276 0 0.59999999999999976 0.69999999999999996 0 0.63221990677827677 0.73442891067859706 0 0.6499999999999998 0.69999999999999996 0 0.6499999999999998 0.69999999999999996 0 0.69999999999999984 0.69999999999999996 0 0.6499999999999998 0.69999999999999996 0 0.66427993341343905 0.73232764502436276 0 0.69999999999999984 0.69999999999999996 0 0.66427993341343905 0.73232764502436276 0 0.69999999999999984 0.69999999999999996 0 0.6916490518212759 0.75387992374886192 0 0.69999999999999984 0.69999999999999996 0 0.72501250972655151 0.74067302935308721 0 0.6916490518212759 0.75387992374886192 0 0.69999999999999984 0.69999999999999996 0 0.74999999999999989 0.69999999999999996 0 0.72501250972655151 0.74067302935308721 0 0.69999999999999984 0.69999999999999996 0 0.74999999999999989 0.69999999999999996 0 0.72500000000000064 0.67022701834392062 0 0.69999999999999984 0.69999999999999996 0 0.74999999999999989 0.69999999999999996 0 0.74999999999999989 0.69999999999999996 0 0.72501250972655151 0.74067302935308721 0 0.75841349681148107 0.75422312624214749 0 0.675261390228442 0.65996937624687813 0 0.71406021706547751 0.63292083137662503 0 0.72500000000000064 0.67022701834392062 0 0.675261390228442 0.65996937624687813 0 0.71406021706547751 0.63292083137662503 0 0.67529834988829951 0.61613270668143583 0 0.675261390228442 0.65996937624687813 0 0.69999999999999984 0.69999999999999996 0 0.72500000000000064 0.67022701834392062 0 0.71406021706547751 0.63292083137662503 0 0.72500000000000064 0.67022701834392062 0 0.74994237037456724 0.62775548192980357 0 0.72500000000000064 0.67022701834392062 0 0.74994237037456724 0.62775548192980357 0 0.7750489929959945 0.66593931409600093 0 0.71406021706547751 0.63292083137662503 0 0.74994237037456724 0.62775548192980357 0 0.71809016091162536 0.58185040402320831 0 0.74994237037456724 0.62775548192980357 0 0.71809016091162536 0.58185040402320831 0 0.77293540622714185 0.59448302402785813 0 0.71406021706547751 0.63292083137662503 0 0.71809016091162536 0.58185040402320831 0 0.67529834988829951 0.61613270668143583 0 0.71809016091162536 0.58185040402320831 0 0.67569444444444449 0.53500863336860327 0 0.67323294229744413 0.57556450033612505 0 0.71809016091162536 0.58185040402320831 0 0.67529834988829951 0.61613270668143583 0 0.67323294229744413 0.57556450033612505 0 0.71809016091162536 0.58185040402320831 0 0.7152569930854884 0.5237994455134295 0 0.77151014687832564 0.54436834383023036 0 0.7152569930854884 0.5237994455134295 0 0.77151014687832564 0.54436834383023036 0 0.73947346780852752 0.49062440112282169 0 0.7152569930854884 0.5237994455134295 0 0.67569444444444449 0.53500863336860327 0 0.69385896817107129 0.48377516041410151 0 0.71809016091162536 0.58185040402320831 0 0.7152569930854884 0.5237994455134295 0 0.67569444444444449 0.53500863336860327 0 0.62042975506801734 0.54295974692364424 0 0.67569444444444449 0.53500863336860327 0 0.67323294229744413 0.57556450033612505 0 0.67569444444444449 0.53500863336860327 0 0.6541250972820879 0.49999999999999989 0 0.69385896817107129 0.48377516041410151 0 0.62042975506801734 0.54295974692364424 0 0.67569444444444449 0.53500863336860327 0 0.6541250972820879 0.49999999999999989 0 0.62042975506801734 0.54295974692364424 0 0.61547661924074692 0.48539576058873962 0 0.6541250972820879 0.49999999999999989 0 0.62042975506801734 0.54295974692364424 0 0.63065402604362242 0.59661356661633302 0 0.67323294229744413 0.57556450033612505 0 0.6405463747586706 0.63290524857395714 0 0.63065402604362242 0.59661356661633302 0 0.67529834988829951 0.61613270668143583 0 0.63065402604362242 0.59661356661633302 0 0.67529834988829951 0.61613270668143583 0 0.67323294229744413 0.57556450033612505 0 0.60000000000138687 1 0 0.62065498684670595 0.95224934003983619 0 0.57382506491224949 0.9629411906298494 0 0.60000000000138687 1 0 0.62065498684670595 0.95224934003983619 0 0.65000000000104008 1 0 0.62065498684670595 0.95224934003983619 0 0.57382506491224949 0.9629411906298494 0 0.57724883562309992 0.92155686857100794 0 0.60000000000138687 1 0 0.57382506491224949 0.9629411906298494 0 0.55000000000173355 1 0 0.55000000000173355 1 0 0.50000000000205869 1 0 0.52122150208832174 0.94089974453840242 0 0.57382506491224949 0.9629411906298494 0 0.52122150208832174 0.94089974453840242 0 0.57724883562309992 0.92155686857100794 0 0.57382506491224949 0.9629411906298494 0 0.55000000000173355 1 0 0.52122150208832174 0.94089974453840242 0 0.52122150208832174 0.94089974453840242 0 0.54783390826260769 0.89287767010860219 0 0.57724883562309992 0.92155686857100794 0 0.52122150208832174 0.94089974453840242 0 0.50202631463681879 0.87892870825713787 0 0.54783390826260769 0.89287767010860219 0 0.54783390826260769 0.89287767010860219 0 0.5832743223239254 0.88483152652961872 0 0.55899371797446828 0.85003102233514438 0 0.54783390826260769 0.89287767010860219 0 0.5832743223239254 0.88483152652961872 0 0.57724883562309992 0.92155686857100794 0 0.5832743223239254 0.88483152652961872 0 0.57724883562309992 0.92155686857100794 0 0.61885627562261258 0.90282959257498208 0 0.62065498684670595 0.95224934003983619 0 0.57724883562309992 0.92155686857100794 0 0.61885627562261258 0.90282959257498208 0 0.5832743223239254 0.88483152652961872 0 0.61885627562261258 0.90282959257498208 0 0.61343887413683884 0.856862479058357 0 0.61343887413683884 0.856862479058357 0 0.60294066490120068 0.80851322453934582 0 0.65005442820240822 0.82644988530054031 0 0.61343887413683884 0.856862479058357 0 0.55899371797446828 0.85003102233514438 0 0.60294066490120068 0.80851322453934582 0 0.55899371797446828 0.85003102233514438 0 0.54782696902220018 0.79245182748204157 0 0.60294066490120068 0.80851322453934582 0 0.5832743223239254 0.88483152652961872 0 0.61343887413683884 0.856862479058357 0 0.55899371797446828 0.85003102233514438 0 0.50202631463681879 0.87892870825713787 0 0.54783390826260769 0.89287767010860219 0 0.55899371797446828 0.85003102233514438 0 0.50202631463681879 0.87892870825713787 0 0.55899371797446828 0.85003102233514438 0 0.50627822638148745 0.8263979829520941 0 0.55899371797446828 0.85003102233514438 0 0.50627822638148745 0.8263979829520941 0 0.54782696902220018 0.79245182748204157 0 0.50627822638148745 0.8263979829520941 0 0.54782696902220018 0.79245182748204157 0 0.50731287292894423 0.78963574450233831 0 0.54782696902220018 0.79245182748204157 0 0.50731287292894423 0.78963574450233831 0 0.50945740445113552 0.75476055527778108 0 0.55363780716230748 0.74348740161571747 0 0.54782696902220018 0.79245182748204157 0 0.50945740445113552 0.75476055527778108 0 0.55363780716230748 0.74348740161571747 0 0.54782696902220018 0.79245182748204157 0 0.59636844454254345 0.75937156204589151 0 0.54782696902220018 0.79245182748204157 0 0.60294066490120068 0.80851322453934582 0 0.59636844454254345 0.75937156204589151 0 0.60294066490120068 0.80851322453934582 0 0.59636844454254345 0.75937156204589151 0 0.64753070846764316 0.77332939069435502 0 0.63221990677827677 0.73442891067859706 0 0.59636844454254345 0.75937156204589151 0 0.64753070846764316 0.77332939069435502 0 0.60294066490120068 0.80851322453934582 0 0.64753070846764316 0.77332939069435502 0 0.65005442820240822 0.82644988530054031 0 0.64753070846764316 0.77332939069435502 0 0.68024162096458085 0.79868546898116533 0 0.65005442820240822 0.82644988530054031 0 0.64753070846764316 0.77332939069435502 0 0.68024162096458085 0.79868546898116533 0 0.6916490518212759 0.75387992374886192 0 0.66427993341343905 0.73232764502436276 0 0.64753070846764316 0.77332939069435502 0 0.6916490518212759 0.75387992374886192 0 0.72501250972655151 0.74067302935308721 0 0.6916490518212759 0.75387992374886192 0 0.72500000000000064 0.7952620967744265 0 0.72501250972655151 0.74067302935308721 0 0.72500000000000064 0.7952620967744265 0 0.75841349681148107 0.75422312624214749 0 0.68024162096458085 0.79868546898116533 0 0.6916490518212759 0.75387992374886192 0 0.72500000000000064 0.7952620967744265 0 0.68024162096458085 0.79868546898116533 0 0.72500000000000064 0.7952620967744265 0 0.68697391633157634 0.84450604838764298 0 0.72500000000000064 0.7952620967744265 0 0.72863726579783861 0.85390518901155588 0 0.68697391633157634 0.84450604838764298 0 0.72500000000000064 0.7952620967744265 0 0.72863726579783861 0.85390518901155588 0 0.76901770135486491 0.84293557325473656 0 0.72863726579783861 0.85390518901155588 0 0.68697391633157634 0.84450604838764298 0 0.7250000000005199 0.89375000000045834 0 0.68697391633157634 0.84450604838764298 0 0.66412543161245952 0.88015090885499059 0 0.7250000000005199 0.89375000000045834 0 0.68697391633157634 0.84450604838764298 0 0.65005442820240822 0.82644988530054031 0 0.66412543161245952 0.88015090885499059 0 0.68024162096458085 0.79868546898116533 0 0.68697391633157634 0.84450604838764298 0 0.65005442820240822 0.82644988530054031 0 0.61343887413683884 0.856862479058357 0 0.65005442820240822 0.82644988530054031 0 0.66412543161245952 0.88015090885499059 0 0.61885627562261258 0.90282959257498208 0 0.61343887413683884 0.856862479058357 0 0.66412543161245952 0.88015090885499059 0 0.61885627562261258 0.90282959257498208 0 0.65507451745379841 0.92229208810758578 0 0.66412543161245952 0.88015090885499059 0 0.62065498684670595 0.95224934003983619 0 0.61885627562261258 0.90282959257498208 0 0.65507451745379841 0.92229208810758578 0 0.65507451745379841 0.92229208810758578 0 0.68987011941058407 0.92105047536677087 0 0.68015064798562208 0.95924320340003011 0 0.65507451745379841 0.92229208810758578 0 0.66412543161245952 0.88015090885499059 0 0.68987011941058407 0.92105047536677087 0 0.66412543161245952 0.88015090885499059 0 0.7250000000005199 0.89375000000045834 0 0.68987011941058407 0.92105047536677087 0 0.72863726579783861 0.85390518901155588 0 0.7250000000005199 0.89375000000045834 0 0.76891166905518427 0.88835469571185499 0 0.7250000000005199 0.89375000000045834 0 0.7250000000005199 0.94981617647078953 0 0.75729602384198635 0.92353652857884294 0 0.7250000000005199 0.89375000000045834 0 0.68987011941058407 0.92105047536677087 0 0.7250000000005199 0.94981617647078953 0 0.68987011941058407 0.92105047536677087 0 0.7250000000005199 0.94981617647078953 0 0.68015064798562208 0.95924320340003011 0 0.7250000000005199 0.94981617647078953 0 0.7000000000006934 1 0 0.75000000000034661 1 0 0.7250000000005199 0.94981617647078953 0 0.75000000000034661 1 0 0.770759834363826 0.95919399014344442 0 0.7250000000005199 0.94981617647078953 0 0.7000000000006934 1 0 0.68015064798562208 0.95924320340003011 0 0.7000000000006934 1 0 0.68015064798562208 0.95924320340003011 0 0.65000000000104008 1 0 0.62065498684670595 0.95224934003983619 0 0.65507451745379841 0.92229208810758578 0 0.68015064798562208 0.95924320340003011 0 0.62065498684670595 0.95224934003983619 0 0.68015064798562208 0.95924320340003011 0 0.65000000000104008 1 0 0.84999999999965292 1 0 0.85170973911348691 0.93569607295217616 0 0.89898474358632463 0.95391965591118966 0 0.84999999999965292 1 0 0.81486180804382891 0.96321394949790495 0 0.85170973911348691 0.93569607295217616 0 0.81486180804382891 0.96321394949790495 0 0.79680861578988083 0.92656778056766709 0 0.85170973911348691 0.93569607295217616 0 0.84999999999965292 1 0 0.81486180804382891 0.96321394949790495 0 0.79999999999999982 1 0 0.81486180804382891 0.96321394949790495 0 0.79999999999999982 1 0 0.770759834363826 0.95919399014344442 0 0.79999999999999982 1 0 0.75000000000034661 1 0 0.770759834363826 0.95919399014344442 0 0.7250000000005199 0.94981617647078953 0 0.770759834363826 0.95919399014344442 0 0.75729602384198635 0.92353652857884294 0 0.81486180804382891 0.96321394949790495 0 0.770759834363826 0.95919399014344442 0 0.79680861578988083 0.92656778056766709 0 0.79680861578988083 0.92656778056766709 0 0.75729602384198635 0.92353652857884294 0 0.76891166905518427 0.88835469571185499 0 0.770759834363826 0.95919399014344442 0 0.79680861578988083 0.92656778056766709 0 0.75729602384198635 0.92353652857884294 0 0.7250000000005199 0.89375000000045834 0 0.75729602384198635 0.92353652857884294 0 0.76891166905518427 0.88835469571185499 0 0.79680861578988083 0.92656778056766709 0 0.76891166905518427 0.88835469571185499 0 0.81159157511211755 0.88795995483179491 0 0.81159157511211755 0.88795995483179491 0 0.85170973911348691 0.93569607295217616 0 0.85600844944837662 0.88483418979512773 0 0.79680861578988083 0.92656778056766709 0 0.81159157511211755 0.88795995483179491 0 0.85170973911348691 0.93569607295217616 0 0.85170973911348691 0.93569607295217616 0 0.85600844944837662 0.88483418979512773 0 0.90416666666660628 0.9041666666666166 0 0.85600844944837662 0.88483418979512773 0 0.82709327591091286 0.84937141670920724 0 0.88088768115933802 0.84674609810493673 0 0.82709327591091286 0.84937141670920724 0 0.84725310900444062 0.80779732082917555 0 0.88088768115933802 0.84674609810493673 0 0.82709327591091286 0.84937141670920724 0 0.80041942726660109 0.81543261647703358 0 0.84725310900444062 0.80779732082917555 0 0.81159157511211755 0.88795995483179491 0 0.85600844944837662 0.88483418979512773 0 0.82709327591091286 0.84937141670920724 0 0.76891166905518427 0.88835469571185499 0 0.81159157511211755 0.88795995483179491 0 0.76901770135486491 0.84293557325473656 0 0.81159157511211755 0.88795995483179491 0 0.82709327591091286 0.84937141670920724 0 0.76901770135486491 0.84293557325473656 0 0.72863726579783861 0.85390518901155588 0 0.76891166905518427 0.88835469571185499 0 0.76901770135486491 0.84293557325473656 0 0.76901770135486491 0.84293557325473656 0 0.80041942726660109 0.81543261647703358 0 0.77094201086366854 0.79647480515688507 0 0.82709327591091286 0.84937141670920724 0 0.76901770135486491 0.84293557325473656 0 0.80041942726660109 0.81543261647703358 0 0.80041942726660109 0.81543261647703358 0 0.77094201086366854 0.79647480515688507 0 0.80185942888539485 0.77452061303608133 0 0.72500000000000064 0.7952620967744265 0 0.77094201086366854 0.79647480515688507 0 0.75841349681148107 0.75422312624214749 0 0.72500000000000064 0.7952620967744265 0 0.76901770135486491 0.84293557325473656 0 0.77094201086366854 0.79647480515688507 0 0.77094201086366854 0.79647480515688507 0 0.75841349681148107 0.75422312624214749 0 0.80185942888539485 0.77452061303608133 0 0.75841349681148107 0.75422312624214749 0 0.80185942888539485 0.77452061303608133 0 0.78578450296893509 0.73292684821144505 0 0.80185942888539485 0.77452061303608133 0 0.84725310900444062 0.80779732082917555 0 0.85491058998424563 0.76004753345552634 0 0.80185942888539485 0.77452061303608133 0 0.85491058998424563 0.76004753345552634 0 0.81864958914779962 0.73589050177899629 0 0.80041942726660109 0.81543261647703358 0 0.80185942888539485 0.77452061303608133 0 0.84725310900444062 0.80779732082917555 0 0.84725310900444062 0.80779732082917555 0 0.85491058998424563 0.76004753345552634 0 0.90299850604011456 0.79563452813489832 0 0.85491058998424563 0.76004753345552634 0 0.90299850604011456 0.79563452813489832 0 0.89999166460796554 0.74528934923809909 0 0.90299850604011456 0.79563452813489832 0 0.94399509803918602 0.75600490196082126 0 0.95386563387742829 0.80414874155775029 0 0.90299850604011456 0.79563452813489832 0 0.94399509803918602 0.75600490196082126 0 0.89999166460796554 0.74528934923809909 0 0.94399509803918602 0.75600490196082126 0 0.97435614836745565 0.77499999999987745 0 0.95386563387742829 0.80414874155775029 0 0.94399509803918602 0.75600490196082126 0 0.97435614836745565 0.77499999999987745 0 0.97166519676947294 0.73337114490064459 0 0.97435614836745565 0.77499999999987745 0 0.97166519676947294 0.73337114490064459 0 1 0.74999999999993494 0 0.97435614836745565 0.77499999999987745 0 1 0.7999999999998193 0 1 0.74999999999993494 0 0.97435614836745565 0.77499999999987745 0 1 0.7999999999998193 0 0.95386563387742829 0.80414874155775029 0 1 0.84999999999982645 0 0.93677536231884972 0.85000000000000286 0 0.95391631417670719 0.89584263333814784 0 0.95386563387742829 0.80414874155775029 0 1 0.84999999999982645 0 0.93677536231884972 0.85000000000000286 0 1 0.7999999999998193 0 0.95386563387742829 0.80414874155775029 0 1 0.84999999999982645 0 0.93677536231884972 0.85000000000000286 0 0.88088768115933802 0.84674609810493673 0 0.90416666666660628 0.9041666666666166 0 0.90299850604011456 0.79563452813489832 0 0.95386563387742829 0.80414874155775029 0 0.93677536231884972 0.85000000000000286 0 0.90299850604011456 0.79563452813489832 0 0.93677536231884972 0.85000000000000286 0 0.88088768115933802 0.84674609810493673 0 0.84725310900444062 0.80779732082917555 0 0.90299850604011456 0.79563452813489832 0 0.88088768115933802 0.84674609810493673 0 0.85600844944837662 0.88483418979512773 0 0.88088768115933802 0.84674609810493673 0 0.90416666666660628 0.9041666666666166 0 0.85170973911348691 0.93569607295217616 0 0.90416666666660628 0.9041666666666166 0 0.89898474358632463 0.95391965591118966 0 0.90416666666660628 0.9041666666666166 0 0.95391631417670719 0.89584263333814784 0 0.94399509803919068 0.9439950980391687 0 0.90416666666660628 0.9041666666666166 0 0.94399509803919068 0.9439950980391687 0 0.89898474358632463 0.95391965591118966 0 0.93677536231884972 0.85000000000000286 0 0.90416666666660628 0.9041666666666166 0 0.95391631417670719 0.89584263333814784 0 1 0.84999999999982645 0 0.95391631417670719 0.89584263333814784 0 1 0.8999999999998336 0 1 0.8999999999998336 0 0.97435614836744289 0.92499999999990257 0 1 0.94999999999997109 0 0.95391631417670719 0.89584263333814784 0 1 0.8999999999998336 0 0.97435614836744289 0.92499999999990257 0 0.95391631417670719 0.89584263333814784 0 0.97435614836744289 0.92499999999990257 0 0.94399509803919068 0.9439950980391687 0 0.97435614836744289 0.92499999999990257 0 0.94399509803919068 0.9439950980391687 0 0.97166519676946206 0.96662885509935492 0 0.97435614836744289 0.92499999999990257 0 0.97166519676946206 0.96662885509935492 0 1 0.94999999999997109 0 0.97166519676946206 0.96662885509935492 0 1 0.94999999999997109 0 1 1 0 0.97166519676946206 0.96662885509935492 0 1 1 0 0.94999999999979179 1 0 0.94399509803919068 0.9439950980391687 0 0.97166519676946206 0.96662885509935492 0 0.94999999999979179 1 0 0.94999999999979179 1 0 0.89898474358632463 0.95391965591118966 0 0.89999999999958358 1 0 0.94399509803919068 0.9439950980391687 0 0.94999999999979179 1 0 0.89898474358632463 0.95391965591118966 0 0.84999999999965292 1 0 0.89898474358632463 0.95391965591118966 0 0.89999999999958358 1 0 0.81723410853263523 0.59419663659258926 0 0.86956835336234861 0.571283299838105 0 0.82862096804812391 0.55037090955459045 0 0.81723410853263523 0.59419663659258926 0 0.87159648282691515 0.61285406320581504 0 0.83758014339878906 0.63222013025741819 0 0.81723410853263523 0.59419663659258926 0 0.79884539758237771 0.62875045078114233 0 0.83758014339878906 0.63222013025741819 0 0.81723410853263523 0.59419663659258926 0 0.87159648282691515 0.61285406320581504 0 0.86956835336234861 0.571283299838105 0 0.86956835336234861 0.571283299838105 0 0.86907294890112186 0.52008116128001669 0 0.82862096804812391 0.55037090955459045 0 0.86907294890112186 0.52008116128001669 0 0.81441713509985358 0.51161854125224959 0 0.82862096804812391 0.55037090955459045 0 0.86907294890112186 0.52008116128001669 0 0.81441713509985358 0.51161854125224959 0 0.84723782639812573 0.48638347960178252 0 0.81441713509985358 0.51161854125224959 0 0.82862096804812391 0.55037090955459045 0 0.77151014687832564 0.54436834383023036 0 0.81441713509985358 0.51161854125224959 0 0.77151014687832564 0.54436834383023036 0 0.77846603114747959 0.49850927265137401 0 0.77151014687832564 0.54436834383023036 0 0.77846603114747959 0.49850927265137401 0 0.73947346780852752 0.49062440112282169 0 0.71809016091162536 0.58185040402320831 0 0.77151014687832564 0.54436834383023036 0 0.77293540622714185 0.59448302402785813 0 0.81723410853263523 0.59419663659258926 0 0.77151014687832564 0.54436834383023036 0 0.77293540622714185 0.59448302402785813 0 0.81723410853263523 0.59419663659258926 0 0.82862096804812391 0.55037090955459045 0 0.77151014687832564 0.54436834383023036 0 0.81723410853263523 0.59419663659258926 0 0.77293540622714185 0.59448302402785813 0 0.79884539758237771 0.62875045078114233 0 0.74994237037456724 0.62775548192980357 0 0.77293540622714185 0.59448302402785813 0 0.79884539758237771 0.62875045078114233 0 0.74994237037456724 0.62775548192980357 0 0.7750489929959945 0.66593931409600093 0 0.79884539758237771 0.62875045078114233 0 0.74999999999999989 0.69999999999999996 0 0.72500000000000064 0.67022701834392062 0 0.7750489929959945 0.66593931409600093 0 0.7750489929959945 0.66593931409600093 0 0.79999999999999982 0.69999999999999996 0 0.82457059160610424 0.66831947184359608 0 0.7750489929959945 0.66593931409600093 0 0.79884539758237771 0.62875045078114233 0 0.82457059160610424 0.66831947184359608 0 0.74999999999999989 0.69999999999999996 0 0.75841349681148107 0.75422312624214749 0 0.78578450296893509 0.73292684821144505 0 0.74999999999999989 0.69999999999999996 0 0.79999999999999982 0.69999999999999996 0 0.78578450296893509 0.73292684821144505 0 0.74999999999999989 0.69999999999999996 0 0.7750489929959945 0.66593931409600093 0 0.79999999999999982 0.69999999999999996 0 0.74999999999999989 0.69999999999999996 0 0.79999999999999982 0.69999999999999996 0 0.80185942888539485 0.77452061303608133 0 0.78578450296893509 0.73292684821144505 0 0.81864958914779962 0.73589050177899629 0 0.79999999999999982 0.69999999999999996 0 0.78578450296893509 0.73292684821144505 0 0.81864958914779962 0.73589050177899629 0 0.85491058998424563 0.76004753345552634 0 0.81864958914779962 0.73589050177899629 0 0.84999999999999987 0.69999999999999996 0 0.79999999999999982 0.69999999999999996 0 0.84999999999999987 0.69999999999999996 0 0.79999999999999982 0.69999999999999996 0 0.84999999999999987 0.69999999999999996 0 0.82457059160610424 0.66831947184359608 0 0.79999999999999982 0.69999999999999996 0 0.81864958914779962 0.73589050177899629 0 0.84999999999999987 0.69999999999999996 0 0.84999999999999987 0.69999999999999996 0 0.89999999999999991 0.69999999999999996 0 0.85491058998424563 0.76004753345552634 0 0.84999999999999987 0.69999999999999996 0 0.89999166460796554 0.74528934923809909 0 0.79884539758237771 0.62875045078114233 0 0.83758014339878906 0.63222013025741819 0 0.82457059160610424 0.66831947184359608 0 0.84999999999999987 0.69999999999999996 0 0.82457059160610424 0.66831947184359608 0 0.87712158428786946 0.65709029563313581 0 0.87159648282691515 0.61285406320581504 0 0.83758014339878906 0.63222013025741819 0 0.87712158428786946 0.65709029563313581 0 0.83758014339878906 0.63222013025741819 0 0.82457059160610424 0.66831947184359608 0 0.87712158428786946 0.65709029563313581 0 0.87712158428786946 0.65709029563313581 0 0.92057473616084773 0.66770436535372446 0 0.91750694127105259 0.63017627779935648 0 0.87159648282691515 0.61285406320581504 0 0.87712158428786946 0.65709029563313581 0 0.91750694127105259 0.63017627779935648 0 0.84999999999999987 0.69999999999999996 0 0.87712158428786946 0.65709029563313581 0 0.89999999999999991 0.69999999999999996 0 0.87712158428786946 0.65709029563313581 0 0.92057473616084773 0.66770436535372446 0 0.89999999999999991 0.69999999999999996 0 0.92057473616084773 0.66770436535372446 0 0.91750694127105259 0.63017627779935648 0 0.9578014258160763 0.65787212321113708 0 0.84999999999999987 0.69999999999999996 0 0.89999166460796554 0.74528934923809909 0 0.89999999999999991 0.69999999999999996 0 0.89999999999999991 0.69999999999999996 0 0.94999999999999996 0.69999999999999996 0 0.92057473616084773 0.66770436535372446 0 0.89999999999999991 0.69999999999999996 0 0.94999999999999996 0.69999999999999996 0 0.89999166460796554 0.74528934923809909 0 0.89999999999999991 0.69999999999999996 0 0.94999999999999996 0.69999999999999996 0 0.94399509803918602 0.75600490196082126 0 0.89999166460796554 0.74528934923809909 0 0.94999999999999996 0.69999999999999996 0 0.94399509803918602 0.75600490196082126 0 0.94999999999999996 0.69999999999999996 0 0.97166519676947294 0.73337114490064459 0 0.94999999999999996 0.69999999999999996 0 1 0.69999999999999996 0 0.94999999999999996 0.69999999999999996 0 1 0.69999999999999996 0 0.97166519676947294 0.73337114490064459 0 1 0.69999999999999996 0 0.97166519676947294 0.73337114490064459 0 1 0.74999999999993494 0 0.91750694127105259 0.63017627779935648 0 0.9578014258160763 0.65787212321113708 0 0.95867599106212187 0.60011091146651041 0 0.92057473616084773 0.66770436535372446 0 0.94999999999999996 0.69999999999999996 0 0.9578014258160763 0.65787212321113708 0 0.94999999999999996 0.69999999999999996 0 1 0.69999999999999996 0 0.9578014258160763 0.65787212321113708 0 1 0.69999999999999996 0 0.9578014258160763 0.65787212321113708 0 1 0.64999999999986979 0 0.9578014258160763 0.65787212321113708 0 1 0.64999999999986979 0 0.95867599106212187 0.60011091146651041 0 0.95867599106212187 0.60011091146651041 0 0.93732437411268477 0.55911392101136159 0 1 0.54999999999963112 0 1 0.64999999999986979 0 1 0.59999999999973963 0 0.95867599106212187 0.60011091146651041 0 1 0.59999999999973963 0 0.95867599106212187 0.60011091146651041 0 1 0.54999999999963112 0 0.91750694127105259 0.63017627779935648 0 0.95867599106212187 0.60011091146651041 0 0.91143117093204207 0.58709913730335972 0 0.95867599106212187 0.60011091146651041 0 0.91143117093204207 0.58709913730335972 0 0.93732437411268477 0.55911392101136159 0 0.86956835336234861 0.571283299838105 0 0.91143117093204207 0.58709913730335972 0 0.90900154012161016 0.53607784105648792 0 0.87159648282691515 0.61285406320581504 0 0.86956835336234861 0.571283299838105 0 0.91143117093204207 0.58709913730335972 0 0.87159648282691515 0.61285406320581504 0 0.91750694127105259 0.63017627779935648 0 0.91143117093204207 0.58709913730335972 0 0.86907294890112186 0.52008116128001669 0 0.90900154012161016 0.53607784105648792 0 0.91696753777131557 0.497780560203536 0 0.86956835336234861 0.571283299838105 0 0.86907294890112186 0.52008116128001669 0 0.90900154012161016 0.53607784105648792 0 0.90900154012161016 0.53607784105648792 0 0.93732437411268477 0.55911392101136159 0 0.95631871884947484 0.51827533208233789 0 0.91143117093204207 0.58709913730335972 0 0.90900154012161016 0.53607784105648792 0 0.93732437411268477 0.55911392101136159 0 0.90900154012161016 0.53607784105648792 0 0.95631871884947484 0.51827533208233789 0 0.91696753777131557 0.497780560203536 0 0.93732437411268477 0.55911392101136159 0 0.95631871884947484 0.51827533208233789 0 1 0.54999999999963112 0 0.95631871884947484 0.51827533208233789 0 1 0.54999999999963112 0 1 0.49999999999950101 0 0.95631871884947484 0.51827533208233789 0 1 0.49999999999950101 0 0.96228564064454991 0.48206450662049471 0 1 0.49999999999950101 0 1 0.44999999999963131 0 0.96228564064454991 0.48206450662049471 0 1 0.44999999999963131 0 0.93814194660195893 0.44426664081746747 0 0.96228564064454991 0.48206450662049471 0 0.93814194660195893 0.44426664081746747 0 0.96228564064454991 0.48206450662049471 0 0.91696753777131557 0.497780560203536 0 0.95631871884947484 0.51827533208233789 0 0.96228564064454991 0.48206450662049471 0 0.91696753777131557 0.497780560203536 0 1 0.39999999999978308 0 0.95871855522754235 0.40006508612975411 0 1 0.34999999999993492 0 1 0.44999999999963131 0 1 0.39999999999978308 0 0.95871855522754235 0.40006508612975411 0 1 0.44999999999963131 0 0.93814194660195893 0.44426664081746747 0 0.95871855522754235 0.40006508612975411 0 0.95871855522754235 0.40006508612975411 0 0.90594285160987287 0.4141265964174129 0 0.91750694127107502 0.36982372220068471 0 0.93814194660195893 0.44426664081746747 0 0.95871855522754235 0.40006508612975411 0 0.90594285160987287 0.4141265964174129 0 0.90594285160987287 0.4141265964174129 0 0.88594198078881503 0.46167788676578442 0 0.86411095495256451 0.42388805655111889 0 0.90594285160987287 0.4141265964174129 0 0.86411095495256451 0.42388805655111889 0 0.86844634540301924 0.38530937474099819 0 0.90594285160987287 0.4141265964174129 0 0.86844634540301924 0.38530937474099819 0 0.91750694127107502 0.36982372220068471 0 0.93814194660195893 0.44426664081746747 0 0.91696753777131557 0.497780560203536 0 0.88594198078881503 0.46167788676578442 0 0.93814194660195893 0.44426664081746747 0 0.90594285160987287 0.4141265964174129 0 0.88594198078881503 0.46167788676578442 0 0.86907294890112186 0.52008116128001669 0 0.91696753777131557 0.497780560203536 0 0.88594198078881503 0.46167788676578442 0 0.86907294890112186 0.52008116128001669 0 0.88594198078881503 0.46167788676578442 0 0.84723782639812573 0.48638347960178252 0 0.81441713509985358 0.51161854125224959 0 0.84723782639812573 0.48638347960178252 0 0.81400510706333218 0.47357325943904899 0 0.84723782639812573 0.48638347960178252 0 0.81400510706333218 0.47357325943904899 0 0.84925632466077294 0.45359738909549091 0 0.81400510706333218 0.47357325943904899 0 0.84925632466077294 0.45359738909549091 0 0.81973119833356312 0.43505687159469048 0 0.88594198078881503 0.46167788676578442 0 0.84723782639812573 0.48638347960178252 0 0.84925632466077294 0.45359738909549091 0 0.84925632466077294 0.45359738909549091 0 0.86411095495256451 0.42388805655111889 0 0.81973119833356312 0.43505687159469048 0 0.88594198078881503 0.46167788676578442 0 0.84925632466077294 0.45359738909549091 0 0.86411095495256451 0.42388805655111889 0 0.86411095495256451 0.42388805655111889 0 0.86844634540301924 0.38530937474099819 0 0.81308179852519835 0.39754945808726527 0 0.86844634540301924 0.38530937474099819 0 0.81308179852519835 0.39754945808726527 0 0.83573492347052902 0.36590755630746369 0 0.86411095495256451 0.42388805655111889 0 0.81308179852519835 0.39754945808726527 0 0.81973119833356312 0.43505687159469048 0 0.81973119833356312 0.43505687159469048 0 0.77354604466818633 0.40378688774472771 0 0.77972660463949339 0.45529290596363098 0 0.81308179852519835 0.39754945808726527 0 0.81973119833356312 0.43505687159469048 0 0.77354604466818633 0.40378688774472771 0 0.81308179852519835 0.39754945808726527 0 0.77354604466818633 0.40378688774472771 0 0.78145581580700685 0.34881365920033602 0 0.77354604466818633 0.40378688774472771 0 0.77972660463949339 0.45529290596363098 0 0.73483647259922602 0.44789725365921768 0 0.77972660463949339 0.45529290596363098 0 0.73483647259922602 0.44789725365921768 0 0.73947346780852752 0.49062440112282169 0 0.77972660463949339 0.45529290596363098 0 0.77846603114747959 0.49850927265137401 0 0.73947346780852752 0.49062440112282169 0 0.81400510706333218 0.47357325943904899 0 0.77972660463949339 0.45529290596363098 0 0.77846603114747959 0.49850927265137401 0 0.81441713509985358 0.51161854125224959 0 0.81400510706333218 0.47357325943904899 0 0.77846603114747959 0.49850927265137401 0 0.81400510706333218 0.47357325943904899 0 0.81973119833356312 0.43505687159469048 0 0.77972660463949339 0.45529290596363098 0 0.79999999999999982 0.29999999999999999 0 0.77075983436335049 0.25919399014334171 0 0.81486180804364938 0.26321394949780091 0 0.79999999999999982 0.29999999999999999 0 0.74999999999999989 0.29999999999999999 0 0.79999999999999982 0.29999999999999999 0 0.77075983436335049 0.25919399014334171 0 0.74999999999999989 0.29999999999999999 0 0.79999999999999982 0.29999999999999999 0 0.78145581580700685 0.34881365920033602 0 0.74999999999999989 0.29999999999999999 0 0.78145581580700685 0.34881365920033602 0 0.73090396928863699 0.33699297293167962 0 0.74999999999999989 0.29999999999999999 0 0.77354604466818633 0.40378688774472771 0 0.78145581580700685 0.34881365920033602 0 0.74764719760526988 0.3719647154012321 0 0.78145581580700685 0.34881365920033602 0 0.74764719760526988 0.3719647154012321 0 0.73090396928863699 0.33699297293167962 0 0.81308179852519835 0.39754945808726527 0 0.78145581580700685 0.34881365920033602 0 0.83573492347052902 0.36590755630746369 0 0.79999999999999982 0.29999999999999999 0 0.78145581580700685 0.34881365920033602 0 0.82500000000000062 0.33010209762754811 0 0.78145581580700685 0.34881365920033602 0 0.82500000000000062 0.33010209762754811 0 0.83573492347052902 0.36590755630746369 0 0.82500000000000062 0.33010209762754811 0 0.83573492347052902 0.36590755630746369 0 0.87430060258887643 0.34056085888204451 0 0.86844634540301924 0.38530937474099819 0 0.83573492347052902 0.36590755630746369 0 0.87430060258887643 0.34056085888204451 0 0.82500000000000062 0.33010209762754811 0 0.87430060258887643 0.34056085888204451 0 0.84999999999999987 0.29999999999999999 0 0.87430060258887643 0.34056085888204451 0 0.84999999999999987 0.29999999999999999 0 0.89999999999999991 0.29999999999999999 0 0.84999999999999987 0.29999999999999999 0 0.81486180804364938 0.26321394949780091 0 0.8517097391133297 0.2356960729520409 0 0.84999999999999987 0.29999999999999999 0 0.89898474358614167 0.25391965591104898 0 0.8517097391133297 0.2356960729520409 0 0.84999999999999987 0.29999999999999999 0 0.89999999999999991 0.29999999999999999 0 0.79999999999999982 0.29999999999999999 0 0.82500000000000062 0.33010209762754811 0 0.84999999999999987 0.29999999999999999 0 0.79999999999999982 0.29999999999999999 0 0.84999999999999987 0.29999999999999999 0 0.81486180804364938 0.26321394949780091 0 0.79999999999999982 0.29999999999999999 0 0.84999999999999987 0.29999999999999999 0 0.84999999999999987 0.29999999999999999 0 0.89898474358614167 0.25391965591104898 0 0.89999999999999991 0.29999999999999999 0 0.89999999999999991 0.29999999999999999 0 0.94999999999999996 0.29999999999999999 0 0.89999999999999991 0.29999999999999999 0 0.92012390126144183 0.33123581297173937 0 0.94999999999999996 0.29999999999999999 0 0.89898474358614167 0.25391965591104898 0 0.89999999999999991 0.29999999999999999 0 0.94999999999999996 0.29999999999999999 0 0.89898474358614167 0.25391965591104898 0 0.94999999999999996 0.29999999999999999 0 0.94399509803921056 0.24399509803922639 0 0.86844634540301924 0.38530937474099819 0 0.87430060258887643 0.34056085888204451 0 0.91750694127107502 0.36982372220068471 0 0.87430060258887643 0.34056085888204451 0 0.92012390126144183 0.33123581297173937 0 0.91750694127107502 0.36982372220068471 0 0.87430060258887643 0.34056085888204451 0 0.89999999999999991 0.29999999999999999 0 0.92012390126144183 0.33123581297173937 0 0.92012390126144183 0.33123581297173937 0 0.91750694127107502 0.36982372220068471 0 0.95780851984364423 0.34215720972155339 0 0.95871855522754235 0.40006508612975411 0 0.91750694127107502 0.36982372220068471 0 0.95780851984364423 0.34215720972155339 0 0.92012390126144183 0.33123581297173937 0 0.95780851984364423 0.34215720972155339 0 0.94999999999999996 0.29999999999999999 0 0.95780851984364423 0.34215720972155339 0 0.94999999999999996 0.29999999999999999 0 1 0.29999999999999999 0 0.95780851984364423 0.34215720972155339 0 1 0.34999999999993492 0 1 0.29999999999999999 0 0.95871855522754235 0.40006508612975411 0 0.95780851984364423 0.34215720972155339 0 1 0.34999999999993492 0 0.94999999999999996 0.29999999999999999 0 0.97166519676951801 0.26662885509932011 0 0.94399509803921056 0.24399509803922639 0 0.94999999999999996 0.29999999999999999 0 1 0.29999999999999999 0 0.94999999999999996 0.29999999999999999 0 1 0.29999999999999999 0 0.97166519676951801 0.26662885509932011 0 1 0.29999999999999999 0 0.97166519676951801 0.26662885509932011 0 1 0.24999999999987299 0 0.97166519676951801 0.26662885509932011 0 0.97435614836740092 0.22499999999981049 0 1 0.24999999999987299 0 0.97435614836740092 0.22499999999981049 0 1 0.24999999999987299 0 1 0.19999999999974799 0 0.97435614836740092 0.22499999999981049 0 0.94399509803921056 0.24399509803922639 0 0.95391631417672862 0.19584263333809451 0 0.97166519676951801 0.26662885509932011 0 0.97435614836740092 0.22499999999981049 0 0.94399509803921056 0.24399509803922639 0 0.97435614836740092 0.22499999999981049 0 0.95391631417672862 0.19584263333809451 0 1 0.19999999999974799 0 0.95391631417672862 0.19584263333809451 0 1 0.14999999999961891 0 0.93677536231883773 0.14999999999999089 0 1 0.14999999999961891 0 0.93677536231883773 0.14999999999999089 0 0.95386563387744361 0.1041487415577465 0 0.95391631417672862 0.19584263333809451 0 1 0.19999999999974799 0 1 0.14999999999961891 0 0.95391631417672862 0.19584263333809451 0 0.93677536231883773 0.14999999999999089 0 0.90416666666668166 0.20416666666667119 0 0.93677536231883773 0.14999999999999089 0 0.88088768115941807 0.14674609810479519 0 0.90416666666668166 0.20416666666667119 0 0.93677536231883773 0.14999999999999089 0 0.88088768115941807 0.14674609810479519 0 0.90299850604006393 0.09563452813493091 0 0.88088768115941807 0.14674609810479519 0 0.90416666666668166 0.20416666666667119 0 0.85600844944842547 0.1848341897950983 0 0.89898474358614167 0.25391965591104898 0 0.90416666666668166 0.20416666666667119 0 0.8517097391133297 0.2356960729520409 0 0.89898474358614167 0.25391965591104898 0 0.94399509803921056 0.24399509803922639 0 0.90416666666668166 0.20416666666667119 0 0.94399509803921056 0.24399509803922639 0 0.95391631417672862 0.19584263333809451 0 0.90416666666668166 0.20416666666667119 0 0.94999999999986839 0 0 0.97166519676946894 0.033371144900598393 0 0.94399509803922566 0.056004901960802607 0 0.94999999999986839 0 0 1 0 0 0.97166519676946894 0.033371144900598393 0 1 0 0 1 0.049999999999896842 0 0.97166519676946894 0.033371144900598393 0 1 0.049999999999896842 0 0.97166519676946894 0.033371144900598393 0 0.97435614836748241 0.074999999999825387 0 0.97166519676946894 0.033371144900598393 0 0.94399509803922566 0.056004901960802607 0 0.97435614836748241 0.074999999999825387 0 0.94399509803922566 0.056004901960802607 0 0.97435614836748241 0.074999999999825387 0 0.95386563387744361 0.1041487415577465 0 0.97435614836748241 0.074999999999825387 0 1 0.099999999999753911 0 0.95386563387744361 0.1041487415577465 0 1 0.049999999999896842 0 0.97435614836748241 0.074999999999825387 0 1 0.099999999999753911 0 1 0.14999999999961891 0 1 0.099999999999753911 0 0.95386563387744361 0.1041487415577465 0 0.93677536231883773 0.14999999999999089 0 0.95386563387744361 0.1041487415577465 0 0.90299850604006393 0.09563452813493091 0 0.88088768115941807 0.14674609810479519 0 0.90299850604006393 0.09563452813493091 0 0.84725310900442086 0.10779732082922661 0 0.90299850604006393 0.09563452813493091 0 0.899991664607802 0.045289349238254978 0 0.85491058998398861 0.060047533455626502 0 0.94399509803922566 0.056004901960802607 0 0.95386563387744361 0.1041487415577465 0 0.90299850604006393 0.09563452813493091 0 0.94399509803922566 0.056004901960802607 0 0.90299850604006393 0.09563452813493091 0 0.899991664607802 0.045289349238254978 0 0.94999999999986839 0 0 0.94399509803922566 0.056004901960802607 0 0.899991664607802 0.045289349238254978 0 0.899991664607802 0.045289349238254978 0 0.89999999999973679 0 0 0.84999999999960507 0 0 0.94999999999986839 0 0 0.899991664607802 0.045289349238254978 0 0.89999999999973679 0 0 0.84999999999960507 0 0 0.81864958914740749 0.035890501779055867 0 0.79999999999947335 0 0 0.899991664607802 0.045289349238254978 0 0.84999999999960507 0 0 0.85491058998398861 0.060047533455626502 0 0.85491058998398861 0.060047533455626502 0 0.81864958914740749 0.035890501779055867 0 0.80185942888501827 0.074520613036224564 0 0.84999999999960507 0 0 0.85491058998398861 0.060047533455626502 0 0.81864958914740749 0.035890501779055867 0 0.85491058998398861 0.060047533455626502 0 0.84725310900442086 0.10779732082922661 0 0.80185942888501827 0.074520613036224564 0 0.90299850604006393 0.09563452813493091 0 0.85491058998398861 0.060047533455626502 0 0.84725310900442086 0.10779732082922661 0 0.84725310900442086 0.10779732082922661 0 0.80076557130237269 0.1154587552654202 0 0.80185942888501827 0.074520613036224564 0 0.84725310900442086 0.10779732082922661 0 0.80076557130237269 0.1154587552654202 0 0.82709327591102189 0.14937141670914489 0 0.80076557130237269 0.1154587552654202 0 0.76878382444651716 0.097147941686331368 0 0.80185942888501827 0.074520613036224564 0 0.76878382444651716 0.097147941686331368 0 0.77144070960558853 0.14311854477243749 0 0.72525833953073282 0.1032114801687094 0 0.80076557130237269 0.1154587552654202 0 0.76878382444651716 0.097147941686331368 0 0.77144070960558853 0.14311854477243749 0 0.76878382444651716 0.097147941686331368 0 0.80185942888501827 0.074520613036224564 0 0.7527966693318906 0.053051678021508272 0 0.81864958914740749 0.035890501779055867 0 0.80185942888501827 0.074520613036224564 0 0.78393852574753176 0.032039079577822822 0 0.80185942888501827 0.074520613036224564 0 0.78393852574753176 0.032039079577822822 0 0.7527966693318906 0.053051678021508272 0 0.78393852574753176 0.032039079577822822 0 0.7527966693318906 0.053051678021508272 0 0.74999999999934175 0 0 0.78393852574753176 0.032039079577822822 0 0.79999999999947335 0 0 0.74999999999934175 0 0 0.81864958914740749 0.035890501779055867 0 0.78393852574753176 0.032039079577822822 0 0.79999999999947335 0 0 0.81283102246527783 0.1881007222486438 0 0.8517097391133297 0.2356960729520409 0 0.79680861578956375 0.22656778056752541 0 0.81283102246527783 0.1881007222486438 0 0.8517097391133297 0.2356960729520409 0 0.85600844944842547 0.1848341897950983 0 0.81486180804364938 0.26321394949780091 0 0.8517097391133297 0.2356960729520409 0 0.79680861578956375 0.22656778056752541 0 0.90416666666668166 0.20416666666667119 0 0.8517097391133297 0.2356960729520409 0 0.85600844944842547 0.1848341897950983 0 0.88088768115941807 0.14674609810479519 0 0.85600844944842547 0.1848341897950983 0 0.82709327591102189 0.14937141670914489 0 0.88088768115941807 0.14674609810479519 0 0.84725310900442086 0.10779732082922661 0 0.82709327591102189 0.14937141670914489 0 0.81283102246527783 0.1881007222486438 0 0.85600844944842547 0.1848341897950983 0 0.82709327591102189 0.14937141670914489 0 0.81283102246527783 0.1881007222486438 0 0.77144070960558853 0.14311854477243749 0 0.76587607630038135 0.18880039518954719 0 0.81283102246527783 0.1881007222486438 0 0.82709327591102189 0.14937141670914489 0 0.77144070960558853 0.14311854477243749 0 0.80076557130237269 0.1154587552654202 0 0.82709327591102189 0.14937141670914489 0 0.77144070960558853 0.14311854477243749 0 0.77144070960558853 0.14311854477243749 0 0.76587607630038135 0.18880039518954719 0 0.72634814642510737 0.16106886917518889 0 0.76587607630038135 0.18880039518954719 0 0.79680861578956375 0.22656778056752541 0 0.75668890529066124 0.2244279804069782 0 0.81283102246527783 0.1881007222486438 0 0.76587607630038135 0.18880039518954719 0 0.79680861578956375 0.22656778056752541 0 0.77075983436335049 0.25919399014334171 0 0.81486180804364938 0.26321394949780091 0 0.79680861578956375 0.22656778056752541 0 0.77075983436335049 0.25919399014334171 0 0.79680861578956375 0.22656778056752541 0 0.75668890529066124 0.2244279804069782 0 0.77075983436335049 0.25919399014334171 0 0.75668890529066124 0.2244279804069782 0 0.72500000000000064 0.2498161764706 0 0.75668890529066124 0.2244279804069782 0 0.72500000000000064 0.2498161764706 0 0.72500000000001008 0.19776155966387679 0 0.72500000000000064 0.2498161764706 0 0.69397719155551807 0.2245125647000914 0 0.72500000000001008 0.19776155966387679 0 0.72500000000000064 0.2498161764706 0 0.69397719155551807 0.2245125647000914 0 0.67933712972090698 0.25920070958121938 0 0.69397719155551807 0.2245125647000914 0 0.72500000000001008 0.19776155966387679 0 0.6865991819015953 0.189116534044597 0 0.76587607630038135 0.18880039518954719 0 0.75668890529066124 0.2244279804069782 0 0.72500000000001008 0.19776155966387679 0 0.76587607630038135 0.18880039518954719 0 0.72500000000001008 0.19776155966387679 0 0.72634814642510737 0.16106886917518889 0 0.77144070960558853 0.14311854477243749 0 0.72634814642510737 0.16106886917518889 0 0.72525833953073282 0.1032114801687094 0 0.72634814642510737 0.16106886917518889 0 0.68391457121233579 0.14440470121196541 0 0.72525833953073282 0.1032114801687094 0 0.72500000000001008 0.19776155966387679 0 0.72634814642510737 0.16106886917518889 0 0.6865991819015953 0.189116534044597 0 0.72634814642510737 0.16106886917518889 0 0.68391457121233579 0.14440470121196541 0 0.6865991819015953 0.189116534044597 0 0.68391457121233579 0.14440470121196541 0 0.64011864159029941 0.18789607982138171 0 0.6865991819015953 0.189116534044597 0 0.68391457121233579 0.14440470121196541 0 0.65290632656860115 0.11434202593454081 0 0.6236733212988993 0.14864538214901801 0 0.68391457121233579 0.14440470121196541 0 0.64011864159029941 0.18789607982138171 0 0.6236733212988993 0.14864538214901801 0 0.64011864159029941 0.18789607982138171 0 0.65394964615507722 0.22666784374016369 0 0.59814117807200873 0.23398510860739519 0 0.65394964615507722 0.22666784374016369 0 0.59814117807200873 0.23398510860739519 0 0.62657463266645097 0.26524202571255862 0 0.69397719155551807 0.2245125647000914 0 0.65394964615507722 0.22666784374016369 0 0.67933712972090698 0.25920070958121938 0 0.64011864159029941 0.18789607982138171 0 0.65394964615507722 0.22666784374016369 0 0.6865991819015953 0.189116534044597 0 0.69397719155551807 0.2245125647000914 0 0.65394964615507722 0.22666784374016369 0 0.6865991819015953 0.189116534044597 0 0.69999999999921003 0 0 0.72683645290270404 0.027797073151180601 0 0.7010294155333181 0.056779085686491267 0 0.69999999999921003 0 0 0.7010294155333181 0.056779085686491267 0 0.66369801598854572 0.036327466368102787 0 0.7527966693318906 0.053051678021508272 0 0.74999999999934175 0 0 0.72683645290270404 0.027797073151180601 0 0.69999999999921003 0 0 0.74999999999934175 0 0 0.72683645290270404 0.027797073151180601 0 0.7527966693318906 0.053051678021508272 0 0.72683645290270404 0.027797073151180601 0 0.7010294155333181 0.056779085686491267 0 0.7010294155333181 0.056779085686491267 0 0.72525833953073282 0.1032114801687094 0 0.68330259535470161 0.10038702501083881 0 0.7527966693318906 0.053051678021508272 0 0.7010294155333181 0.056779085686491267 0 0.72525833953073282 0.1032114801687094 0 0.76878382444651716 0.097147941686331368 0 0.7527966693318906 0.053051678021508272 0 0.72525833953073282 0.1032114801687094 0 0.68391457121233579 0.14440470121196541 0 0.72525833953073282 0.1032114801687094 0 0.68330259535470161 0.10038702501083881 0 0.68330259535470161 0.10038702501083881 0 0.65290632656860115 0.11434202593454081 0 0.65408113592120842 0.073941773121567966 0 0.68391457121233579 0.14440470121196541 0 0.68330259535470161 0.10038702501083881 0 0.65290632656860115 0.11434202593454081 0 0.65290632656860115 0.11434202593454081 0 0.61956000905586006 0.1043312481793135 0 0.6236733212988993 0.14864538214901801 0 0.65290632656860115 0.11434202593454081 0 0.65408113592120842 0.073941773121567966 0 0.61956000905586006 0.1043312481793135 0 0.65408113592120842 0.073941773121567966 0 0.61940220174112337 0.047251958781050582 0 0.61956000905586006 0.1043312481793135 0 0.7010294155333181 0.056779085686491267 0 0.68330259535470161 0.10038702501083881 0 0.65408113592120842 0.073941773121567966 0 0.7010294155333181 0.056779085686491267 0 0.65408113592120842 0.073941773121567966 0 0.66369801598854572 0.036327466368102787 0 0.65408113592120842 0.073941773121567966 0 0.66369801598854572 0.036327466368102787 0 0.61940220174112337 0.047251958781050582 0 0.66369801598854572 0.036327466368102787 0 0.64999999999907843 0 0 0.61940220174112337 0.047251958781050582 0 0.69999999999921003 0 0 0.66369801598854572 0.036327466368102787 0 0.64999999999907843 0 0 0.59999999999894682 0 0 0.57396793757665954 0.037011367187645222 0 0.5499999999988151 0 0 0.64999999999907843 0 0 0.59999999999894682 0 0 0.61940220174112337 0.047251958781050582 0 0.59999999999894682 0 0 0.61940220174112337 0.047251958781050582 0 0.57396793757665954 0.037011367187645222 0 0.61940220174112337 0.047251958781050582 0 0.57396793757665954 0.037011367187645222 0 0.57667858002728545 0.078486105337742612 0 0.61940220174112337 0.047251958781050582 0 0.57667858002728545 0.078486105337742612 0 0.61956000905586006 0.1043312481793135 0 0.61956000905586006 0.1043312481793135 0 0.58516465772821369 0.11653801664834119 0 0.6236733212988993 0.14864538214901801 0 0.57667858002728545 0.078486105337742612 0 0.61956000905586006 0.1043312481793135 0 0.58516465772821369 0.11653801664834119 0 0.58516465772821369 0.11653801664834119 0 0.54979595918804436 0.1060565713905809 0 0.56202748619534593 0.15054058349222879 0 0.57667858002728545 0.078486105337742612 0 0.58516465772821369 0.11653801664834119 0 0.54979595918804436 0.1060565713905809 0 0.54979595918804436 0.1060565713905809 0 0.51076801031701946 0.1202837388510348 0 0.52375890611712683 0.059318771819432882 0 0.47881186583059909 0.093591717165689425 0 0.51076801031701946 0.1202837388510348 0 0.52375890611712683 0.059318771819432882 0 0.57667858002728545 0.078486105337742612 0 0.54979595918804436 0.1060565713905809 0 0.52375890611712683 0.059318771819432882 0 0.57396793757665954 0.037011367187645222 0 0.52375890611712683 0.059318771819432882 0 0.5499999999988151 0 0 0.57396793757665954 0.037011367187645222 0 0.57667858002728545 0.078486105337742612 0 0.52375890611712683 0.059318771819432882 0 0.49999999999869432 0 0 0.52375890611712683 0.059318771819432882 0 0.5499999999988151 0 0 0.59814117807200873 0.23398510860739519 0 0.59443395090188023 0.18455690917515069 0 0.55306006949600994 0.20198184231352201 0 0.59814117807200873 0.23398510860739519 0 0.55306006949600994 0.20198184231352201 0 0.54248833945060504 0.2520322959927106 0 0.64011864159029941 0.18789607982138171 0 0.59814117807200873 0.23398510860739519 0 0.59443395090188023 0.18455690917515069 0 0.64011864159029941 0.18789607982138171 0 0.59443395090188023 0.18455690917515069 0 0.6236733212988993 0.14864538214901801 0 0.58516465772821369 0.11653801664834119 0 0.6236733212988993 0.14864538214901801 0 0.56202748619534593 0.15054058349222879 0 0.59443395090188023 0.18455690917515069 0 0.6236733212988993 0.14864538214901801 0 0.56202748619534593 0.15054058349222879 0 0.59443395090188023 0.18455690917515069 0 0.56202748619534593 0.15054058349222879 0 0.55306006949600994 0.20198184231352201 0 0.56202748619534593 0.15054058349222879 0 0.51729576145820033 0.1683240575987815 0 0.55306006949600994 0.20198184231352201 0 0.54979595918804436 0.1060565713905809 0 0.51076801031701946 0.1202837388510348 0 0.56202748619534593 0.15054058349222879 0 0.48466639505193998 0.1421439844745814 0 0.51076801031701946 0.1202837388510348 0 0.51729576145820033 0.1683240575987815 0 0.51076801031701946 0.1202837388510348 0 0.56202748619534593 0.15054058349222879 0 0.51729576145820033 0.1683240575987815 0 0.51729576145820033 0.1683240575987815 0 0.50760557329222289 0.20700468884612061 0 0.55306006949600994 0.20198184231352201 0 0.50760557329222289 0.20700468884612061 0 0.55306006949600994 0.20198184231352201 0 0.54248833945060504 0.2520322959927106 0 0.49695729691142171 0.25014895411178018 0 0.50760557329222289 0.20700468884612061 0 0.54248833945060504 0.2520322959927106 0 0.49695729691142171 0.25014895411178018 0 0.5 0.29999999999999999 0 0.54248833945060504 0.2520322959927106 0 0.5 0.29999999999999999 0 0.54999999999999993 0.29999999999999999 0 0.52752007115234678 0.33170632466418198 0 0.5 0.29999999999999999 0 0.54999999999999993 0.29999999999999999 0 0.54248833945060504 0.2520322959927106 0 0.5 0.29999999999999999 0 0.54999999999999993 0.29999999999999999 0 0.54999999999999993 0.29999999999999999 0 0.54248833945060504 0.2520322959927106 0 0.5794309697024993 0.27124795968204829 0 0.59814117807200873 0.23398510860739519 0 0.54248833945060504 0.2520322959927106 0 0.5794309697024993 0.27124795968204829 0 0.54999999999999993 0.29999999999999999 0 0.59999999999999976 0.29999999999999999 0 0.54999999999999993 0.29999999999999999 0 0.5794309697024993 0.27124795968204829 0 0.59999999999999976 0.29999999999999999 0 0.59999999999999976 0.29999999999999999 0 0.6499999999999998 0.29999999999999999 0 0.5794309697024993 0.27124795968204829 0 0.59999999999999976 0.29999999999999999 0 0.62657463266645097 0.26524202571255862 0 0.59814117807200873 0.23398510860739519 0 0.5794309697024993 0.27124795968204829 0 0.62657463266645097 0.26524202571255862 0 0.61959173890754571 0.33832250091341232 0 0.56836770495988642 0.3523062350852913 0 0.6084546825910605 0.37989672713932537 0 0.59999999999999976 0.29999999999999999 0 0.61959173890754571 0.33832250091341232 0 0.6499999999999998 0.29999999999999999 0 0.59999999999999976 0.29999999999999999 0 0.61959173890754571 0.33832250091341232 0 0.56836770495988642 0.3523062350852913 0 0.54999999999999993 0.29999999999999999 0 0.59999999999999976 0.29999999999999999 0 0.56836770495988642 0.3523062350852913 0 0.56836770495988642 0.3523062350852913 0 0.52752007115234678 0.33170632466418198 0 0.52289427570932567 0.3932284363388488 0 0.54999999999999993 0.29999999999999999 0 0.56836770495988642 0.3523062350852913 0 0.52752007115234678 0.33170632466418198 0 0.49077833859261139 0.35229981449445641 0 0.5 0.29999999999999999 0 0.52752007115234678 0.33170632466418198 0 0.49077833859261139 0.35229981449445641 0 0.52752007115234678 0.33170632466418198 0 0.52289427570932567 0.3932284363388488 0 0.56836770495988642 0.3523062350852913 0 0.52289427570932567 0.3932284363388488 0 0.57744073070774993 0.41535148636609359 0 0.52289427570932567 0.3932284363388488 0 0.53823865529665704 0.45873898050322898 0 0.57744073070774993 0.41535148636609359 0 0.48858720058566618 0.43964267759203868 0 0.52289427570932567 0.3932284363388488 0 0.53823865529665704 0.45873898050322898 0 0.49102375406324739 0.49123754822244059 0 0.53330375813596242 0.50827942741749099 0 0.53823865529665704 0.45873898050322898 0 0.49102375406324739 0.49123754822244059 0 0.48858720058566618 0.43964267759203868 0 0.53823865529665704 0.45873898050322898 0 0.53330375813596242 0.50827942741749099 0 0.57611405284611883 0.50165903596042916 0 0.53823865529665704 0.45873898050322898 0 0.57611405284611883 0.50165903596042916 0 0.57975577671020095 0.46172033326338591 0 0.61547661924074692 0.48539576058873962 0 0.57611405284611883 0.50165903596042916 0 0.53823865529665704 0.45873898050322898 0 0.57975577671020095 0.46172033326338591 0 0.57975577671020095 0.46172033326338591 0 0.61209567303293111 0.44669033081290321 0 0.57744073070774993 0.41535148636609359 0 0.53823865529665704 0.45873898050322898 0 0.57975577671020095 0.46172033326338591 0 0.57744073070774993 0.41535148636609359 0 0.57975577671020095 0.46172033326338591 0 0.61209567303293111 0.44669033081290321 0 0.61547661924074692 0.48539576058873962 0 0.56836770495988642 0.3523062350852913 0 0.57744073070774993 0.41535148636609359 0 0.6084546825910605 0.37989672713932537 0 0.61209567303293111 0.44669033081290321 0 0.57744073070774993 0.41535148636609359 0 0.63912439215427275 0.41063340167983359 0 0.57744073070774993 0.41535148636609359 0 0.6084546825910605 0.37989672713932537 0 0.63912439215427275 0.41063340167983359 0 0.6084546825910605 0.37989672713932537 0 0.63912439215427275 0.41063340167983359 0 0.65481233915350323 0.35652751921065562 0 0.63912439215427275 0.41063340167983359 0 0.65178832218679827 0.45929119821019959 0 0.6879972333610942 0.43038561374960838 0 0.63912439215427275 0.41063340167983359 0 0.68128176404677243 0.38629093627004979 0 0.6879972333610942 0.43038561374960838 0 0.63912439215427275 0.41063340167983359 0 0.68128176404677243 0.38629093627004979 0 0.65481233915350323 0.35652751921065562 0 0.61547661924074692 0.48539576058873962 0 0.6541250972820879 0.49999999999999989 0 0.65178832218679827 0.45929119821019959 0 0.61209567303293111 0.44669033081290321 0 0.61547661924074692 0.48539576058873962 0 0.65178832218679827 0.45929119821019959 0 0.61209567303293111 0.44669033081290321 0 0.63912439215427275 0.41063340167983359 0 0.65178832218679827 0.45929119821019959 0 0.65178832218679827 0.45929119821019959 0 0.69385896817107129 0.48377516041410151 0 0.6879972333610942 0.43038561374960838 0 0.6541250972820879 0.49999999999999989 0 0.65178832218679827 0.45929119821019959 0 0.69385896817107129 0.48377516041410151 0 0.7152569930854884 0.5237994455134295 0 0.69385896817107129 0.48377516041410151 0 0.73947346780852752 0.49062440112282169 0 0.69385896817107129 0.48377516041410151 0 0.73483647259922602 0.44789725365921768 0 0.6879972333610942 0.43038561374960838 0 0.69385896817107129 0.48377516041410151 0 0.73483647259922602 0.44789725365921768 0 0.73947346780852752 0.49062440112282169 0 0.68128176404677243 0.38629093627004979 0 0.72622533758026719 0.40265885511101601 0 0.71508799138962864 0.36622814920737751 0 0.73483647259922602 0.44789725365921768 0 0.6879972333610942 0.43038561374960838 0 0.72622533758026719 0.40265885511101601 0 0.68128176404677243 0.38629093627004979 0 0.6879972333610942 0.43038561374960838 0 0.72622533758026719 0.40265885511101601 0 0.77354604466818633 0.40378688774472771 0 0.73483647259922602 0.44789725365921768 0 0.72622533758026719 0.40265885511101601 0 0.72622533758026719 0.40265885511101601 0 0.74764719760526988 0.3719647154012321 0 0.71508799138962864 0.36622814920737751 0 0.77354604466818633 0.40378688774472771 0 0.72622533758026719 0.40265885511101601 0 0.74764719760526988 0.3719647154012321 0 0.74764719760526988 0.3719647154012321 0 0.71508799138962864 0.36622814920737751 0 0.73090396928863699 0.33699297293167962 0 0.71508799138962864 0.36622814920737751 0 0.68887083591306764 0.33632058575757479 0 0.73090396928863699 0.33699297293167962 0 0.68128176404677243 0.38629093627004979 0 0.71508799138962864 0.36622814920737751 0 0.68887083591306764 0.33632058575757479 0 0.68887083591306764 0.33632058575757479 0 0.73090396928863699 0.33699297293167962 0 0.69999999999999984 0.29999999999999999 0 0.72500000000000064 0.2498161764706 0 0.74999999999999989 0.29999999999999999 0 0.69999999999999984 0.29999999999999999 0 0.74999999999999989 0.29999999999999999 0 0.69999999999999984 0.29999999999999999 0 0.73090396928863699 0.33699297293167962 0 0.74999999999999989 0.29999999999999999 0 0.69999999999999984 0.29999999999999999 0 0.77075983436335049 0.25919399014334171 0 0.72500000000000064 0.2498161764706 0 0.74999999999999989 0.29999999999999999 0 0.72500000000000064 0.2498161764706 0 0.69999999999999984 0.29999999999999999 0 0.67933712972090698 0.25920070958121938 0 0.69999999999999984 0.29999999999999999 0 0.67933712972090698 0.25920070958121938 0 0.6499999999999998 0.29999999999999999 0 0.68887083591306764 0.33632058575757479 0 0.69999999999999984 0.29999999999999999 0 0.6499999999999998 0.29999999999999999 0 0.69999999999999984 0.29999999999999999 0 0.6499999999999998 0.29999999999999999 0 0.67933712972090698 0.25920070958121938 0 0.62657463266645097 0.26524202571255862 0 0.6499999999999998 0.29999999999999999 0 0.65394964615507722 0.22666784374016369 0 0.67933712972090698 0.25920070958121938 0 0.62657463266645097 0.26524202571255862 0 0.59999999999999976 0.29999999999999999 0 0.62657463266645097 0.26524202571255862 0 0.6499999999999998 0.29999999999999999 0 0.61959173890754571 0.33832250091341232 0 0.6499999999999998 0.29999999999999999 0 0.65481233915350323 0.35652751921065562 0 0.61959173890754571 0.33832250091341232 0 0.6084546825910605 0.37989672713932537 0 0.65481233915350323 0.35652751921065562 0 0.68128176404677243 0.38629093627004979 0 0.68887083591306764 0.33632058575757479 0 0.65481233915350323 0.35652751921065562 0 0.68887083591306764 0.33632058575757479 0 0.6499999999999998 0.29999999999999999 0 0.65481233915350323 0.35652751921065562 0 
</DataArray>
</Points>
<Cells>
<DataArray type="UInt32" Name="connectivity" format="ascii">
0 1 2 3 4 5 6 7 8 9 10 11 12 13 14 15 16 17 18 19 20 21 22 23 24 25 26 27 28 29 30 31 32 33 34 35 36 37 38 39 40 41 42 43 44 45 46 47 48 49 50 51 52 53 54 55 56 57 58 59 60 61 62 63 64 65 66 67 68 69 70 71 72 73 74 75 76 77 78 79 80 81 82 83 84 85 86 87 88 89 90 91 92 93 94 95 96 97 98 99 100 101 102 103 104 105 106 107 108 109 110 111 112 113 114 115 116 117 118 119 120 121 122 123 124 125 126 127 128 129 130 131 132 133 134 135 136 137 138 139 140 141 142 143 144 145 146 147 148 149 150 151 152 153 154 155 156 157 158 159 160 161 162 163 164 165 166 167 168 169 170 171 172 173 174 175 176 177 178 179 180 181 182 183 184 185 186 187 188 189 190 191 192 193 194 195 196 197 198 199 200 201 202 203 204 205 206 207 208 209 210 211 212 213 214 215 216 217 218 219 220 221 222 223 224 225 226 227 228 229 230 231 232 233 234 235 236 237 238 239 240 241 242 243 244 245 246 247 248 249 250 251 252 253 254 255 256 257 258 259 260 261 262 263 264 265 266 267 268 269 270 271 272 273 274 275 276 277 278 279 280 281 282 283 284 285 286 287 288 289 290 291 292 293 294 295 296 297 298 299 300 301 302 303 304 305 306 307 308 309 310 311 312 313 314 315 316 317 318 319 320 321 322 323 324 325 326 327 328 329 330 331 332 333 334 335 336 337 338 339 340 341 342 343 344 345 346 347 348 349 350 351 352 353 354 355 356 357 358 359 360 361 362 363 364 365 366 367 368 369 370 371 372 373 374 375 376 377 378 379 380 381 382 383 384 385 386 387 388 389 390 391 392 393 394 395 396 397 398 399 400 401 402 403 404 405 406 407 408 409 410 411 412 413 414 415 416 417 418 419 420 421 422 423 424 425 426 427 428 429 430 431 432 433 434 435 436 437 438 439 440 441 442 443 444 445 446 447 448 449 450 451 452 453 454 455 456 457 458 459 460 461 462 463 464 465 466 467 468 469 470 471 472 473 474 475 476 477 478 479 480 481 482 483 484 485 486 487 488 489 490 491 492 493 494 495 496 497 498 499 500 501 502 503 504 505 506 507 508 509 510 511 512 513 514 515 516 517 518 519 520 521 522 523 524 525 526 527 528 529 530 531 532 533 534 535 536 537 538 539 540 541 542 543 544 545 546 547 548 549 550 551 552 553 554 555 556 557 558 559 560 561 562 563 564 565 566 567 568 569 570 571 572 573 574 575 576 577 578 579 580 581 582 583 584 585 586 587 588 589 590 591 592 593 594 595 596 597 598 599 600 601 602 603 604 605 606 607 608 609 610 611 612 613 614 615 616 617 618 619 620 621 622 623 624 625 626 627 628 629 630 631 632 633 634 635 636 637 638 639 640 641 642 643 644 645 646 647 648 649 650 651 652 653 654 655 656 657 658 659 660 661 662 663 664 665 666 667 668 669 670 671 672 673 674 675 676 677 678 679 680 681 682 683 684 685 686 687 688 689 690 691 692 693 694 695 696 697 698 699 700 701 702 703 704 705 706 707 708 709 710 711 712 713 714 715 716 717 718 719 720 721 722 723 724 725 726 727 728 729 730 731 732 733 734 735 736 737 738 739 740 741 742 743 744 745 746 747 748 749 750 751 752 753 754 755 756 757 758 759 760 761 762 763 764 765 766 767 768 769 770 771 772 773 774 775 776 777 778 779 780 781 782 783 784 785 786 787 788 789 790 791 792 793 794 795 796 797 798 799 800 801 802 803 804 805 806 807 808 809 810 811 812 813 814 815 816 817 818 819 820 821 822 823 824 825 826 827 828 829 830 831 832 833 834 835 836 837 838 839 840 841 842 843 844 845 846 847 848 849 850 851 852 853 854 855 856 857 858 859 860 861 862 863 864 865 866 867 868 869 870 871 872 873 874 875 876 877 878 879 880 881 882 883 884 885 886 887 888 889 890 891 892 893 894 895 896 897 898 899 900 901 902 903 904 905 906 907 908 909 910 911 912 913 914 915 916 917 918 919 920 921 922 923 924 925 926 927 928 929 930 931 932 933 934 935 936 937 938 939 940 941 942 943 944 945 946 947 948 949 950 951 952 953 954 955 956 957 958 959 960 961 962 963 964 965 966 967 968 969 970 971 972 973 974 975 976 977 978 979 980 981 982 983 984 985 986 987 988 989 990 991 992 993 994 995 996 997 998 999 1000 1001 1002 1003 1004 1005 1006 1007 1008 1009 1010 1011 1012 1013 1014 1015 1016 1017 1018 1019 1020 1021 1022 1023 1024 1025 1026 1027 1028 1029 1030 1031 1032 1033 1034 1035 1036 1037 1038 1039 1040 1041 1042 1043 1044 1045 1046 1047 1048 1049 1050 1051 1052 1053 1054 1055 1056 1057 1058 1059 1060 1061 1062 1063 1064 1065 1066 1067 1068 1069 1070 1071 1072 1073 1074 1075 1076 1077 1078 1079 1080 1081 1082 1083 1084 1085 1086 1087 1088 1089 1090 1091 1092 1093 1094 1095 1096 1097 1098 1099 1100 1101 1102 1103 1104 1105 1106 1107 1108 1109 1110 1111 1112 1113 1114 1115 1116 1117 1118 1119 1120 1121 1122 1123 1124 1125 1126 1127 1128 1129 1130 1131 1132 1133 1134 1135 1136 1137 1138 1139 1140 1141 1142 1143 1144 1145 1146 1147 1148 1149 1150 1151 1152 1153 1154 1155 1156 1157 1158 1159 1160 1161 1162 1163 1164 1165 1166 1167 1168 1169 1170 1171 1172 1173 1174 1175 1176 1177 1178 1179 1180 1181 1182 1183 1184 1185 1186 1187 1188 1189 1190 1191 1192 1193 1194 1195 1196 1197 1198 1199 1200 1201 1202 1203 1204 1205 1206 1207 1208 1209 1210 1211 1212 1213 1214 1215 1216 1217 1218 1219 1220 1221 1222 1223 1224 1225 1226 1227 1228 1229 1230 1231 1232 1233 1234 1235 1236 1237 1238 1239 1240 1241 1242 1243 1244 1245 1246 1247 1248 1249 1250 1251 1252 1253 1254 1255 1256 1257 1258 1259 1260 1261 1262 1263 1264 1265 1266 1267 1268 1269 1270 1271 1272 1273 1274 1275 1276 1277 1278 1279 1280 1281 1282 1283 1284 1285 1286 1287 1288 1289 1290 1291 1292 1293 1294 1295 1296 1297 1298 1299 1300 1301 1302 1303 1304 1305 1306 1307 1308 1309 1310 1311 1312 1313 1314 1315 1316 1317 1318 1319 1320 1321 1322 1323 1324 1325 1326 1327 1328 1329 1330 1331 1332 1333 1334 1335 1336 1337 1338 1339 1340 1341 1342 1343 1344 1345 1346 1347 1348 1349 1350 1351 1352 1353 1354 1355 1356 1357 1358 1359 1360 1361 1362 1363 1364 1365 1366 1367 1368 1369 1370 1371 1372 1373 1374 1375 1376 1377 1378 1379 1380 1381 1382 1383 1384 1385 1386 1387 1388 1389 1390 1391 1392 1393 1394 1395 1396 1397 1398 1399 1400 1401 1402 1403 1404 1405 1406 1407 1408 1409 1410 1411 1412 1413 1414 1415 1416 1417 1418 1419 1420 1421 1422 1423 1424 1425 1426 1427 1428 1429 1430 1431 1432 1433 1434 1435 1436 1437 1438 1439 1440 1441 1442 1443 1444 1445 1446 1447 1448 1449 1450 1451 1452 1453 1454 1455 1456 1457 1458 1459 1460 1461 1462 1463 1464 1465 1466 1467 1468 1469 1470 1471 1472 1473 1474 1475 1476 1477 1478 1479 1480 1481 1482 1483 1484 1485 1486 1487 1488 1489 1490 1491 1492 1493 1494 1495 1496 1497 1498 1499 1500 1501 1502 1503 1504 1505 1506 1507 1508 1509 1510 1511 1512 1513 1514 1515 1516 1517 1518 1519 1520 1521 1522 1523 1524 1525 1526 1527 1528 1529 1530 1531 1532 1533 1534 1535 1536 1537 1538 1539 1540 1541 1542 1543 1544 1545 1546 1547 1548 1549 1550 1551 1552 1553 1554 1555 1556 1557 1558 1559 1560 1561 1562 1563 1564 1565 1566 1567 1568 1569 1570 1571 1572 1573 1574 1575 1576 1577 1578 1579 1580 1581 1582 1583 1584 1585 1586 1587 1588 1589 1590 1591 1592 1593 1594 1595 1596 1597 1598 1599 1600 1601 1602 1603 1604 1605 1606 1607 1608 1609 1610 1611 1612 1613 1614 1615 1616 1617 1618 1619 1620 1621 1622 1623 1624 1625 1626 1627 1628 1629 1630 1631 1632 1633 1634 1635 1636 1637 1638 1639 1640 1641 1642 1643 1644 1645 1646 1647 1648 1649 1650 1651 1652 1653 1654 1655 1656 1657 1658 1659 1660 1661 1662 1663 1664 1665 1666 1667 1668 1669 1670 1671 1672 1673 1674 1675 1676 1677 1678 1679 1680 1681 1682 1683 1684 1685 1686 1687 1688 1689 1690 1691 1692 1693 1694 1695 1696 1697 1698 1699 1700 1701 1702 1703 1704 1705 1706 1707 1708 1709 1710 1711 1712 1713 1714 1715 1716 1717 1718 1719 1720 1721 1722 1723 1724 1725 1726 1727 1728 1729 1730 1731 1732 1733 1734 1735 1736 1737 1738 1739 1740 1741 1742 1743 1744 1745 1746 1747 1748 1749 1750 1751 1752 1753 1754 1755 1756 1757 1758 1759 1760 1761 1762 1763 1764 1765 1766 1767 1768 1769 1770 1771 1772 1773 1774 1775 1776 1777 1778 1779 1780 1781 1782 1783 1784 1785 1786 1787 1788 1789 1790 1791 1792 1793 1794 1795 1796 1797 1798 1799 1800 1801 1802 1803 1804 1805 1806 1807 1808 1809 1810 1811 1812 1813 1814 1815 1816 1817 1818 1819 1820 1821 1822 1823 1824 1825 1826 1827 1828 1829 1830 1831 1832 1833 1834 1835 1836 1837 1838 1839 1840 1841 1842 1843 1844 1845 1846 1847 1848 1849 1850 1851 1852 1853 1854 1855 1856 1857 1858 1859 1860 1861 1862 1863 1864 1865 1866 1867 1868 1869 1870 1871 1872 1873 1874 1875 1876 1877 1878 1879 1880 1881 1882 1883 1884 1885 1886 1887 1888 1889 1890 1891 1892 1893 1894 1895 1896 1897 1898 1899 1900 1901 1902 1903 1904 1905 1906 1907 1908 1909 1910 1911 1912 1913 1914 1915 1916 1917 1918 1919 1920 1921 1922 1923 1924 1925 1926 1927 1928 1929 1930 1931 1932 1933 1934 1935 1936 1937 1938 1939 1940 1941 1942 1943 1944 1945 1946 1947 1948 1949 1950 1951 1952 1953 1954 1955 1956 1957 1958 1959 1960 1961 1962 1963 1964 1965 1966 1967 1968 1969 1970 1971 1972 1973 1974 1975 1976 1977 1978 1979 1980 1981 1982 1983 1984 1985 1986 1987 1988 1989 1990 1991 1992 1993 1994 1995 1996 1997 1998 1999 2000 2001 2002 2003 2004 2005 2006 2007 2008 2009 2010 2011 2012 2013 2014 2015 2016 2017 2018 2019 2020 2021 2022 2023 2024 2025 2026 2027 2028 2029 2030 2031 2032 2033 2034 2035 2036 2037 2038 2039 2040 2041 2042 2043 2044 2045 2046 2047 2048 2049 2050 2051 2052 2053 2054 2055 2056 2057 2058 2059 2060 2061 2062 2063 2064 2065 2066 2067 2068 2069 2070 2071 2072 2073 2074 2075 2076 2077 2078 2079 2080 2081 2082 2083 2084 2085 2086 2087 2088 2089 2090 2091 2092 2093 2094 2095 2096 2097 2098 2099 2100 2101 2102 2103 2104 2105 2106 2107 2108 2109 2110 2111 2112 2113 2114 2115 2116 2117 2118 2119 2120 2121 2122 2123 2124 2125 2126 2127 2128 2129 2130 2131 2132 2133 2134 2135 2136 2137 2138 2139 2140 2141 2142 2143 2144 2145 2146 2147 2148 2149 2150 2151 2152 2153 2154 2155 2156 2157 2158 2159 2160 2161 2162 2163 2164 2165 2166 2167 2168 2169 2170 2171 2172 2173 2174 2175 2176 2177 2178 2179 2180 2181 2182 2183 2184 2185 2186 2187 2188 2189 2190 2191 2192 2193 2194 2195 2196 2197 2198 2199 2200 2201 2202 2203 2204 2205 2206 2207 2208 2209 2210 2211 2212 2213 2214 2215 2216 2217 2218 2219 2220 2221 2222 2223 2224 2225 2226 2227 2228 2229 2230 2231 2232 2233 2234 2235 2236 2237 2238 2239 2240 2241 2242 2243 2244 2245 2246 2247 2248 2249 2250 2251 2252 2253 2254 2255 2256 2257 2258 2259 2260 2261 2262 2263 2264 2265 2266 2267 2268 2269 2270 2271 2272 2273 2274 2275 2276 2277 2278 2279 2280 2281 2282 2283 2284 2285 2286 2287 2288 2289 2290 2291 2292 2293 2294 2295 2296 2297 2298 2299 2300 2301 2302 2303 2304 2305 2306 2307 2308 2309 2310 2311 2312 2313 2314 2315 2316 2317 2318 2319 2320 2321 2322 2323 2324 2325 2326 2327 2328 2329 2330 2331 2332 2333 2334 2335 2336 2337 2338 2339 2340 2341 2342 2343 2344 2345 2346 2347 2348 2349 2350 2351 2352 2353 2354 2355 2356 2357 2358 2359 2360 2361 2362 2363 2364 2365 2366 2367 2368 2369 2370 2371 2372 2373 2374 2375 2376 2377 2378 2379 2380 2381 2382 2383 2384 2385 2386 2387 2388 2389 2390 2391 2392 2393 2394 2395 2396 2397 2398 2399 2400 2401 2402 2403 2404 2405 2406 2407 2408 2409 2410 2411 2412 2413 2414 2415 2416 2417 2418 2419 2420 2421 2422 2423 2424 2425 2426 2427 2428 2429 2430 2431 2432 2433 2434 2435 2436 2437 2438 2439 2440 2441 2442 2443 2444 2445 2446 2447 2448 2449 2450 2451 2452 2453 2454 2455 2456 2457 2458 2459 2460 2461 2462 2463 2464 2465 2466 2467 2468 2469 2470 2471 2472 2473 2474 2475 2476 2477 2478 2479 2480 2481 2482 2483 2484 2485 2486 2487 2488 2489 2490 2491 2492 2493 2494 2495 2496 2497 2498 2499 2500 2501 2502 2503 2504 2505 2506 2507 2508 2509 2510 2511 2512 2513 2514 2515 2516 2517 2518 2519 2520 2521 2522 2523 2524 2525 2526 2527 2528 2529 2530 2531 2532 2533 2534 2535 2536 2537 2538 2539 2540 2541 2542 2543 2544 2545 2546 2547 2548 2549 2550 2551 2552 2553 2554 2555 2556 2557 2558 2559 2560 2561 2562 2563 2564 2565 2566 2567 2568 2569 2570 2571 2572 2573 2574 2575 2576 2577 2578 2579 2580 2581 2582 2583 2584 2585 2586 2587 2588 2589 2590 2591 2592 2593 2594 2595 2596 2597 2598 2599 2600 2601 2602 2603 2604 2605 2606 2607 2608 2609 2610 2611 2612 2613 2614 2615 2616 2617 2618 2619 2620 2621 2622 2623 2624 2625 2626 2627 2628 2629 2630 2631 2632 2633 2634 2635 2636 2637 2638 2639 2640 2641 2642 2643 2644 2645 2646 2647 2648 2649 2650 2651 2652 2653 2654 2655 2656 2657 2658 2659 2660 2661 2662 2663 2664 2665 2666 2667 2668 2669 2670 2671 2672 2673 2674 2675 2676 2677 2678 2679 2680 2681 2682 2683 2684 2685 2686 2687 2688 2689 2690 2691 2692 2693 2694 2695 2696 2697 2698 2699 2700 2701 2702 2703 2704 2705 2706 2707 2708 2709 2710 2711 2712 2713 2714 2715 2716 2717 2718 2719 2720 2721 2722 2723 2724 2725 2726 2727 2728 2729 2730 2731 2732 2733 2734 2735 2736 2737 2738 2739 2740 2741 2742 2743 2744 2745 2746 2747 2748 2749 2750 2751 2752 2753 2754 2755 2756 2757 2758 2759 2760 2761 2762 2763 2764 2765 2766 2767 2768 2769 2770 2771 2772 2773 2774 2775 2776 2777 2778 2779 2780 2781 2782 2783 2784 2785 2786 2787 2788 2789 2790 2791 2792 2793 2794 2795 2796 2797 2798 2799 2800 2801 2802 2803 2804 2805 2806 2807 2808 2809 2810 2811 2812 2813 2814 2815 2816 2817 2818 2819 2820 2821 2822 2823 2824 2825 2826 2827 2828 2829 2830 2831 2832 2833 2834 2835 2836 2837 2838 2839 2840 2841 2842 2843 2844 2845 2846 2847 2848 2849 2850 2851 2852 2853 2854 2855 2856 2857 2858 2859 2860 2861 2862 2863 2864 2865 2866 2867 2868 2869 2870 2871 2872 2873 2874 2875 2876 2877 2878 2879 2880 2881 2882 2883 2884 2885 2886 2887 2888 2889 2890 2891 2892 2893 2894 2895 2896 2897 2898 2899 2900 2901 2902 2903 2904 2905 2906 2907 2908 2909 2910 2911 2912 2913 2914 2915 2916 2917 2918 2919 2920 2921 2922 2923 2924 2925 2926 2927 2928 2929 2930 2931 2932 2933 2934 2935 2936 2937 2938 2939 2940 2941 2942 2943 2944 2945 2946 2947 2948 2949 2950 2951 2952 2953 2954 2955 2956 2957 2958 2959 2960 2961 2962 2963 2964 2965 2966 2967 2968 2969 2970 2971 2972 2973 2974 2975 2976 2977 2978 2979 2980 2981 2982 2983 2984 2985 2986 2987 2988 2989 2990 2991 2992 2993 2994 2995 2996 2997 2998 2999 3000 3001 3002 3003 3004 3005 3006 3007 3008 3009 3010 3011 3012 3013 3014 3015 3016 3017 3018 3019 3020 3021 3022 3023 3024 3025 3026 3027 3028 3029 3030 3031 3032 3033 3034 3035 3036 3037 3038 3039 3040 3041 3042 3043 3044 3045 3046 3047 3048 3049 3050 3051 3052 3053 3054 3055 3056 3057 3058 3059 3060 3061 3062 3063 3064 3065 3066 3067 3068 3069 3070 3071 3072 3073 3074 3075 3076 3077 3078 3079 3080 3081 3082 3083 3084 3085 3086 3087 3088 3089 3090 3091 3092 3093 3094 3095 3096 3097 3098 3099 3100 3101 3102 3103 3104 3105 3106 3107 3108 3109 3110 3111 3112 3113 3114 3115 3116 3117 3118 3119 3120 3121 3122 3123 3124 3125 3126 3127 3128 3129 3130 3131 3132 3133 3134 3135 3136 3137 3138 3139 3140 3141 
</DataArray>
<DataArray type="UInt32" Name="offsets" format="ascii">
3 6 9 12 15 18 21 24 27 30 33 36 39 42 45 48 51 54 57 60 63 66 69 72 75 78 81 84 87 90 93 96 99 102 105 108 111 114 117 120 123 126 129 132 135 138 141 144 147 150 153 156 159 162 165 168 171 174 177 180 183 186 189 192 195 198 201 204 207 210 213 216 219 222 225 228 231 234 237 240 243 246 249 252 255 258 261 264 267 270 273 276 279 282 285 288 291 294 297 300 303 306 309 312 315 318 321 324 327 330 333 336 339 342 345 348 351 354 357 360 363 366 369 372 375 378 381 384 387 390 393 396 399 402 405 408 411 414 417 420 423 426 429 432 435 438 441 444 447 450 453 456 459 462 465 468 471 474 477 480 483 486 489 492 495 498 501 504 507 510 513 516 519 522 525 528 531 534 537 540 543 546 549 552 555 558 561 564 567 570 573 576 579 582 585 588 591 594 597 600 603 606 609 612 615 618 621 624 627 630 633 636 639 642 645 648 651 654 657 660 663 666 669 672 675 678 681 684 687 690 693 696 699 702 705 708 711 714 717 720 723 726 729 732 735 738 741 744 747 750 753 756 759 762 765 768 771 774 777 780 783 786 789 792 795 798 801 804 807 810 813 816 819 822 825 828 831 834 837 840 843 846 849 852 855 858 861 864 867 870 873 876 879 882 885 888 891 894 897 900 903 906 909 912 915 918 921 924 927 930 933 936 939 942 945 948 951 954 957 960 963 966 969 972 975 978 981 984 987 990 993 996 999 1002 1005 1008 1011 1014 1017 1020 1023 1026 1029 1032 1035 1038 1041 1044 1047 1050 1053 1056 1059 1062 1065 1068 1071 1074 1077 1080 1083 1086 1089 1092 1095 1098 1101 1104 1107 1110 1113 1116 1119 1122 1125 1128 1131 1134 1137 1140 1143 1146 1149 1152 1155 1158 1161 1164 1167 1170 1173 1176 1179 1182 1185 1188 1191 1194 1197 1200 1203 1206 1209 1212 1215 1218 1221 1224 1227 1230 1233 1236 1239 1242 1245 1248 1251 1254 1257 1260 1263 1266 1269 1272 1275 1278 1281 1284 1287 1290 1293 1296 1299 1302 1305 1308 1311 1314 1317 1320 1323 1326 1329 1332 1335 1338 1341 1344 1347 1350 1353 1356 1359 1362 1365 1368 1371 1374 1377 1380 1383 1386 1389 1392 1395 1398 1401 1404 1407 1410 1413 1416 1419 1422 1425 1428 1431 1434 1437 1440 1443 1446 1449 1452 1455 1458 1461 1464 1467 1470 1473 1476 1479 1482 1485 1488 1491 1494 1497 1500 1503 1506 1509 1512 1515 1518 1521 1524 1527 1530 1533 1536 1539 1542 1545 1548 1551 1554 1557 1560 1563 1566 1569 1572 1575 1578 1581 1584 1587 1590 1593 1596 1599 1602 1605 1608 1611 1614 1616 1619 1622 1624 1627 1630 1632 1635 1638 1641 1644 1647 1650 1653 1656 1659 1662 1665 1668 1671 1673 1676 1679 1682 1685 1688 1690 1693 1696 1699 1702 1705 1708 1711 1714 1717 1720 1723 1726 1729 1732 1735 1738 1741 1744 1747 1750 1753 1756 1759 1762 1765 1768 1771 1774 1777 1780 1783 1786 1789 1792 1795 1798 1801 1804 1807 1810 1813 1816 1819 1822 1825 1828 1831 1834 1837 1840 1843 1846 1849 1852 1855 1858 1861 1864 1867 1870 1873 1876 1879 1882 1885 1888 1891 1894 1897 1900 1903 1906 1909 1912 1915 1918 1921 1924 1927 1930 1933 1936 1939 1942 1945 1948 1951 1954 1957 1960 1963 1966 1969 1972 1975 1978 1981 1984 1987 1990 1993 1996 1999 2002 2005 2008 2011 2014 2017 2020 2023 2026 2029 2032 2035 2038 2041 2044 2047 2050 2053 2056 2059 2062 2065 2068 2071 2074 2077 2080 2083 2086 2089 2092 2095 2098 2101 2104 2107 2110 2113 2116 2119 2122 2125 2128 2131 2134 2137 2140 2143 2146 2149 2152 2155 2158 2161 2164 2167 2170 2173 2176 2179 2182 2185 2188 2191 2194 2196 2199 2202 2205 2207 2210 2213 2215 2218 2221 2224 2227 2230 2233 2236 2239 2242 2245 2248 2250 2253 2256 2259 2262 2264 2267 2270 2273 2276 2279 2282 2285 2288 2291 2294 2297 2300 2303 2306 2309 2312 2315 2318 2321 2324 2327 2330 2333 2336 2339 2342 2345 2348 2351 2354 2357 2360 2363 2366 2369 2372 2375 2378 2381 2384 2387 2390 2393 2396 2399 2402 2405 2408 2411 2414 2417 2420 2423 2426 2429 2432 2435 2438 2440 2443 2446 2449 2452 2455 2458 2461 2464 2467 2470 2473 2476 2479 2482 2484 2487 2490 2492 2495 2497 2500 2503 2506 2509 2512 2515 2518 2521 2524 2527 2530 2533 2536 2538 2541 2544 2547 2550 2553 2556 2559 2562 2565 2568 2571 2574 2577 2580 2583 2586 2589 2592 2595 2598 2601 2604 2607 2610 2613 2616 2619 2622 2625 2628 2631 2634 2637 2640 2643 2646 2649 2652 2655 2658 2661 2664 2667 2670 2673 2676 2679 2682 2685 2688 2691 2694 2697 2700 2703 2706 2709 2712 2715 2718 2721 2724 2727 2730 2733 2736 2739 2742 2745 2748 2751 2754 2757 2760 2763 2766 2769 2772 2775 2778 2781 2784 2787 2790 2793 2796 2799 2802 2805 2808 2811 2814 2817 2820 2823 2826 2829 2832 2835 2838 2841 2844 2847 2850 2853 2856 2859 2862 2865 2868 2871 2874 2877 2880 2883 2886 2889 2892 2895 2898 2901 2904 2907 2910 2913 2916 2919 2922 2925 2928 2931 2934 2937 2940 2943 2946 2948 2951 2954 2956 2959 2961 2964 2967 2970 2973 2976 2979 2982 2985 2988 2991 2994 2997 3000 3003 3006 3009 3012 3015 3018 3021 3024 3027 3030 3033 3036 3039 3042 3045 3048 3051 3054 3057 3060 3063 3066 3069 3072 3075 3078 3081 3084 3087 3090 3093 3096 3099 3102 3104 3107 3110 3113 3116 3119 3121 3124 3127 3130 3133 3136 3139 3142 
</DataArray>
<DataArray type="UInt32" Name="types" format="ascii">
5 5 5 5 5 5 5 5 5 5 5 5 5 5 5 5 5 5 5 5 5 5 5 5 5 5 5 5 5 5 5 5 5 5 5 5 5 5 5 5 5 5 5 5 5 5 5 5 5 5 5 5 5 5 5 5 5 5 5 5 5 5 5 5 5 5 5 5 5 5 5 5 5 5 5 5 5 5 5 5 5 5 5 5 5 5 5 5 5 5 5 5 5 5 5 5 5 5 5 5 5 5 5 5 5 5 5 5 5 5 5 5 5 5 5 5 5 5 5 5 5 5 5 5 5 5 5 5 5 5 5 5 5 5 5 5 5 5 5 5 5 5 5 5 5 5 5 5 5 5 5 5 5 5 5 5 5 5 5 5 5 5 5 5 5 5 5 5 5 5 5 5 5 5 5 5 5 5 5 5 5 5 5 5 5 5 5 5 5 5 5 5 5 5 5 5 5 5 5 5 5 5 5 5 5 5 5 5 5 5 5 5 5 5 5 5 5 5 5 5 5 5 5 5 5 5 5 5 5 5 5 5 5 5 5 5 5 5 5 5 5 5 5 5 5 5 5 5 5 5 5 5 5 5 5 5 5 5 5 5 5 5 5 5 5 5 5 5 5 5 5 5 5 5 5 5 5 5 5 5 5 5 5 5 5 5 5 5 5 5 5 5 5 5 5 5 5 5 5 5 5 5 5 5 5 5 5 5 5 5 5 5 5 5 5 5 5 5 5 5 5 5 5 5 5 5 5 5 5 5 5 5 5 5 5 5 5 5 5 5 5 5 5 5 5 5 5 5 5 5 5 5 5 5 5 5 5 5 5 5 5 5 5 5 5 5 5 5 5 5 5 5 5 5 5 5 5 5 5 5 5 5 5 5 5 5 5 5 5 5 5 5 5 5 5 5 5 5 5 5 5 5 5 5 5 5 5 5 5 5 5 5 5 5 5 5 5 5 5 5 5 5 5 5 5 5 5 5 5 5 5 5 5 5 5 5 5 5 5 5 5 5 5 5 5 5 5 5 5 5 5 5 5 5 5 5 5 5 5 5 5 5 5 5 5 5 5 5 5 5 5 5 5 5 5 5 5 5 5 5 5 5 5 5 5 5 5 5 5 5 5 5 5 5 5 5 5 5 5 5 5 5 5 5 5 5 5 5 5 5 5 5 5 5 5 5 5 5 5 5 5 5 5 5 5 5 5 5 5 5 5 5 5 5 5 5 5 5 3 5 5 3 5 5 3 5 5 5 5 5 5 5 5 5 5 5 5 5 3 5 5 5 5 5 3 5 5 5 5 5 5 5 5 5 5 5 5 5 5 5 5 5 5 5 5 5 5 5 5 5 5 5 5 5 5 5 5 5 5 5 5 5 5 5 5 5 5 5 5 5 5 5 5 5 5 5 5 5 5 5 5 5 5 5 5 5 5 5 5 5 5 5 5 5 5 5 5 5 5 5 5 5 5 5 5 5 5 5 5 5 5 5 5 5 5 5 5 5 5 5 5 5 5 5 5 5 5 5 5 5 5 5 5 5 5 5 5 5 5 5 5 5 5 5 5 5 5 5 5 5 5 5 5 5 5 5 5 5 5 5 5 5 5 5 5 5 5 5 5 5 5 5 5 5 5 5 5 5 5 5 5 5 5 5 5 5 5 5 5 5 5 5 5 3 5 5 5 3 5 5 3 5 5 5 5 5 5 5 5 5 5 5 3 5 5 5 5 3 5 5 5 5 5 5 5 5 5 5 5 5 5 5 5 5 5 5 5 5 5 5 5 5 5 5 5 5 5 5 5 5 5 5 5 5 5 5 5 5 5 5 5 5 5 5 5 5 5 5 5 5 5 5 5 5 5 5 3 5 5 5 5 5 5 5 5 5 5 5 5 5 5 3 5 5 3 5 3 5 5 5 5 5 5 5 5 5 5 5 5 5 3 5 5 5 5 5 5 5 5 5 5 5 5 5 5 5 5 5 5 5 5 5 5 5 5 5 5 5 5 5 5 5 5 5 5 5 5 5 5 5 5 5 5 5 5 5 5 5 5 5 5 5 5 5 5 5 5 5 5 5 5 5 5 5 5 5 5 5 5 5 5 5 5 5 5 5 5 5 5 5 5 5 5 5 5 5 5 5 5 5 5 5 5 5 5 5 5 5 5 5 5 5 5 5 5 5 5 5 5 5 5 5 5 5 5 5 5 5 5 5 5 5 5 5 5 5 5 5 5 5 5 5 5 5 5 5 5 3 5 5 3 5 3 5 5 5 5 5 5 5 5 5 5 5 5 5 5 5 5 5 5 5 5 5 5 5 5 5 5 5 5 5 5 5 5 5 5 5 5 5 5 5 5 5 5 5 5 5 5 5 3 5 5 5 5 5 3 5 5 5 5 5 5 5 
</DataArray>
</Cells>
<PointData Scalars="" Vectors="displacement," Tensors="">
<DataArray type="Float64" Name="displacement" NumberOfComponents="3" format="ascii">
-3.4442116727822053e-07 8.7006674784391064e-08 0 -6.4851417190344912e-10 -2.671305058434689e-10 0 -7.534758980132029e-07 1.8223113690714423e-08 0 -3.4442116727822053e-07 8.7006674784391064e-08 0 -6.4851417190344912e-10 -2.671305058434689e-10 0 -6.1328676025683772e-10 1.9558501265782219e-10 0 -3.4442116727822053e-07 8.7006674784391064e-08 0 -7.534758980132029e-07 1.8223113690714423e-08 0 -7.8032780406122219e-07 3.3128973219993078e-07 0 -3.4442116727822053e-07 8.7006674784391064e-08 0 -7.8032780406122219e-07 3.3128973219993078e-07 0 -6.1328676025683772e-10 1.9558501265782219e-10 0 -6.1328676025683772e-10 1.9558501265782219e-10 0 -6.1277242352733933e-10 1.2675010927414707e-10 0 -5.0114877556546899e-07 4.7130446062416246e-07 0 -6.1277242352733933e-10 1.2675010927414707e-10 0 -5.0114877556546899e-07 4.7130446062416246e-07 0 -3.2472961136850461e-10 3.6187360116937895e-10 0 -7.8032780406122219e-07 3.3128973219993078e-07 0 -5.0114877556546899e-07 4.7130446062416246e-07 0 -1.0939616020556351e-06 7.1510563360293175e-07 0 -7.8032780406122219e-07 3.3128973219993078e-07 0 -6.1328676025683772e-10 1.9558501265782219e-10 0 -5.0114877556546899e-07 4.7130446062416246e-07 0 -5.0114877556546899e-07 4.7130446062416246e-07 0 -1.0939616020556351e-06 7.1510563360293175e-07 0 -5.8321992002067102e-07 7.8367297364554246e-07 0 -1.0939616020556351e-06 7.1510563360293175e-07 0 -5.8321992002067102e-07 7.8367297364554246e-07 0 -1.1205801711244733e-06 1.0046055731911403e-06 0 -1.0939616020556351e-06 7.1510563360293175e-07 0 -1.6902813468378001e-06 9.3031923579728671e-07 0 -1.1205801711244733e-06 1.0046055731911403e-06 0 -1.6902813468378001e-06 9.3031923579728671e-07 0 -1.1205801711244733e-06 1.0046055731911403e-06 0 -1.3588327873571464e-06 1.1892624347505035e-06 0 -1.6902813468378001e-06 9.3031923579728671e-07 0 -1.6751283172130332e-06 5.5575949511241659e-07 0 -2.4053708411629372e-06 7.6459369420360676e-07 0 -1.0939616020556351e-06 7.1510563360293175e-07 0 -1.6902813468378001e-06 9.3031923579728671e-07 0 -1.6751283172130332e-06 5.5575949511241659e-07 0 -1.6751283172130332e-06 5.5575949511241659e-07 0 -1.7024273348638377e-06 2.3431618230994809e-07 0 -2.8713820010188579e-06 3.3069090462454916e-07 0 -7.534758980132029e-07 1.8223113690714423e-08 0 -7.8032780406122219e-07 3.3128973219993078e-07 0 -1.7024273348638377e-06 2.3431618230994809e-07 0 -7.8032780406122219e-07 3.3128973219993078e-07 0 -1.6751283172130332e-06 5.5575949511241659e-07 0 -1.7024273348638377e-06 2.3431618230994809e-07 0 -7.8032780406122219e-07 3.3128973219993078e-07 0 -1.0939616020556351e-06 7.1510563360293175e-07 0 -1.6751283172130332e-06 5.5575949511241659e-07 0 -8.4134852603930479e-08 6.5232869929071474e-07 0 -2.0520642672279799e-10 2.6003377941185795e-10 0 -1.4116417342527322e-11 3.1892107420336934e-10 0 -8.4134852603930479e-08 6.5232869929071474e-07 0 -2.0520642672279799e-10 2.6003377941185795e-10 0 -2.0590635462260511e-07 5.4650124484326422e-07 0 -8.4134852603930479e-08 6.5232869929071474e-07 0 -2.0590635462260511e-07 5.4650124484326422e-07 0 -3.6475885434725451e-07 1.0193581374999199e-06 0 -2.0590635462260511e-07 5.4650124484326422e-07 0 -3.2472961136850461e-10 3.6187360116937895e-10 0 -5.8321992002067102e-07 7.8367297364554246e-07 0 -5.0114877556546899e-07 4.7130446062416246e-07 0 -3.2472961136850461e-10 3.6187360116937895e-10 0 -5.8321992002067102e-07 7.8367297364554246e-07 0 -2.0590635462260511e-07 5.4650124484326422e-07 0 -5.8321992002067102e-07 7.8367297364554246e-07 0 -3.6475885434725451e-07 1.0193581374999199e-06 0 -2.0520642672279799e-10 2.6003377941185795e-10 0 -2.0590635462260511e-07 5.4650124484326422e-07 0 -3.2472961136850461e-10 3.6187360116937895e-10 0 -5.8321992002067102e-07 7.8367297364554246e-07 0 -1.1205801711244733e-06 1.0046055731911403e-06 0 -8.0540080823342038e-07 1.1202946288401352e-06 0 -1.1205801711244733e-06 1.0046055731911403e-06 0 -8.0540080823342038e-07 1.1202946288401352e-06 0 -1.3588327873571464e-06 1.1892624347505035e-06 0 -5.8321992002067102e-07 7.8367297364554246e-07 0 -8.0540080823342038e-07 1.1202946288401352e-06 0 -3.6475885434725451e-07 1.0193581374999199e-06 0 -3.6475885434725451e-07 1.0193581374999199e-06 0 -2.8931143415244974e-08 1.1314123108554174e-06 0 -5.5212963996073994e-07 1.3052930800231036e-06 0 -8.0540080823342038e-07 1.1202946288401352e-06 0 -3.6475885434725451e-07 1.0193581374999199e-06 0 -5.5212963996073994e-07 1.3052930800231036e-06 0 -8.4134852603930479e-08 6.5232869929071474e-07 0 -3.6475885434725451e-07 1.0193581374999199e-06 0 -2.8931143415244974e-08 1.1314123108554174e-06 0 -8.4134852603930479e-08 6.5232869929071474e-07 0 -2.8931143415244974e-08 1.1314123108554174e-06 0 9.2159102256277439e-08 7.0934608495993325e-07 0 -2.8931143415244974e-08 1.1314123108554174e-06 0 -6.3735427058842686e-08 1.3102399836979613e-06 0 -5.5212963996073994e-07 1.3052930800231036e-06 0 -1.970391124853362e-07 1.3163691645740293e-06 0 -6.3735427058842686e-08 1.3102399836979613e-06 0 -5.5212963996073994e-07 1.3052930800231036e-06 0 -1.970391124853362e-07 1.3163691645740293e-06 0 -5.5212963996073994e-07 1.3052930800231036e-06 0 -1.0088217078750895e-06 1.2726028290148388e-06 0 -1.0088217078750895e-06 1.2726028290148388e-06 0 -1.3588327873571464e-06 1.1892624347505035e-06 0 -1.885107703483651e-06 1.124704262727559e-06 0 -8.0540080823342038e-07 1.1202946288401352e-06 0 -5.5212963996073994e-07 1.3052930800231036e-06 0 -1.3588327873571464e-06 1.1892624347505035e-06 0 -5.5212963996073994e-07 1.3052930800231036e-06 0 -1.0088217078750895e-06 1.2726028290148388e-06 0 -1.3588327873571464e-06 1.1892624347505035e-06 0 -1.3588327873571464e-06 1.1892624347505035e-06 0 -1.885107703483651e-06 1.124704262727559e-06 0 -2.1641409720926469e-06 1.0056143845631249e-06 0 -1.885107703483651e-06 1.124704262727559e-06 0 -2.6633011216602534e-06 8.3029738222269856e-07 0 -1.3876208605313232e-06 1.0747360439451802e-06 0 -2.6633011216602534e-06 8.3029738222269856e-07 0 -1.3876208605313232e-06 1.0747360439451802e-06 0 -2.2069505513411977e-06 6.5749277246200109e-07 0 -1.3876208605313232e-06 1.0747360439451802e-06 0 -2.2069505513411977e-06 6.5749277246200109e-07 0 -1.3064407619432534e-06 6.4309854510607621e-07 0 -1.0088217078750895e-06 1.2726028290148388e-06 0 -1.885107703483651e-06 1.124704262727559e-06 0 -1.3876208605313232e-06 1.0747360439451802e-06 0 -1.970391124853362e-07 1.3163691645740293e-06 0 -1.0088217078750895e-06 1.2726028290148388e-06 0 -4.9300312916952359e-07 1.1024209162806433e-06 0 -1.0088217078750895e-06 1.2726028290148388e-06 0 -1.3876208605313232e-06 1.0747360439451802e-06 0 -4.9300312916952359e-07 1.1024209162806433e-06 0 -1.3876208605313232e-06 1.0747360439451802e-06 0 -4.9300312916952359e-07 1.1024209162806433e-06 0 -1.3064407619432534e-06 6.4309854510607621e-07 0 -4.9300312916952359e-07 1.1024209162806433e-06 0 3.3279791687297992e-07 8.2750920950370325e-07 0 4.2292560427963202e-07 1.183195284080984e-06 0 -1.970391124853362e-07 1.3163691645740293e-06 0 -4.9300312916952359e-07 1.1024209162806433e-06 0 4.2292560427963202e-07 1.183195284080984e-06 0 -3.4366328023745991e-06 5.4904971804177545e-07 0 -2.8713820010188579e-06 3.3069090462454916e-07 0 -2.4053708411629372e-06 7.6459369420360676e-07 0 -3.4366328023745991e-06 5.4904971804177545e-07 0 -2.4053708411629372e-06 7.6459369420360676e-07 0 -3.0793907083468599e-06 8.1697602896980788e-07 0 -3.4366328023745991e-06 5.4904971804177545e-07 0 -2.8713820010188579e-06 3.3069090462454916e-07 0 -4.2599904366793097e-06 1.3264336014239853e-07 0 -1.6751283172130332e-06 5.5575949511241659e-07 0 -2.8713820010188579e-06 3.3069090462454916e-07 0 -2.4053708411629372e-06 7.6459369420360676e-07 0 -1.6902813468378001e-06 9.3031923579728671e-07 0 -2.4053708411629372e-06 7.6459369420360676e-07 0 -2.1641409720926469e-06 1.0056143845631249e-06 0 -1.6902813468378001e-06 9.3031923579728671e-07 0 -1.3588327873571464e-06 1.1892624347505035e-06 0 -2.1641409720926469e-06 1.0056143845631249e-06 0 -1.885107703483651e-06 1.124704262727559e-06 0 -2.1641409720926469e-06 1.0056143845631249e-06 0 -3.0793907083468599e-06 8.1697602896980788e-07 0 -2.4053708411629372e-06 7.6459369420360676e-07 0 -2.1641409720926469e-06 1.0056143845631249e-06 0 -3.0793907083468599e-06 8.1697602896980788e-07 0 -1.885107703483651e-06 1.124704262727559e-06 0 -2.6633011216602534e-06 8.3029738222269856e-07 0 -3.0793907083468599e-06 8.1697602896980788e-07 0 -2.6633011216602534e-06 8.3029738222269856e-07 0 -3.0793907083468599e-06 8.1697602896980788e-07 0 -3.8206761110173726e-06 4.8990725864776604e-07 0 -2.6633011216602534e-06 8.3029738222269856e-07 0 -3.8206761110173726e-06 4.8990725864776604e-07 0 -3.6141322822255236e-06 2.390434168983254e-07 0 -3.0793907083468599e-06 8.1697602896980788e-07 0 -3.8206761110173726e-06 4.8990725864776604e-07 0 -4.3542180498866786e-06 3.3078765100281629e-07 0 -3.8206761110173726e-06 4.8990725864776604e-07 0 -4.3542180498866786e-06 3.3078765100281629e-07 0 -5.2876196088489819e-06 -1.6235353926655271e-07 0 -3.4366328023745991e-06 5.4904971804177545e-07 0 -3.0793907083468599e-06 8.1697602896980788e-07 0 -4.3542180498866786e-06 3.3078765100281629e-07 0 -3.4366328023745991e-06 5.4904971804177545e-07 0 -4.3542180498866786e-06 3.3078765100281629e-07 0 -4.2599904366793097e-06 1.3264336014239853e-07 0 -4.3542180498866786e-06 3.3078765100281629e-07 0 -4.2599904366793097e-06 1.3264336014239853e-07 0 -5.8467451937131333e-06 -3.8401978882714408e-07 0 -5.8467451937131333e-06 -3.8401978882714408e-07 0 -5.2876196088489819e-06 -1.6235353926655271e-07 0 -7.546828035703463e-06 -1.2794727286300114e-06 0 -4.3542180498866786e-06 3.3078765100281629e-07 0 -5.8467451937131333e-06 -3.8401978882714408e-07 0 -5.2876196088489819e-06 -1.6235353926655271e-07 0 -5.2876196088489819e-06 -1.6235353926655271e-07 0 -7.546828035703463e-06 -1.2794727286300114e-06 0 -7.1138737732502909e-06 -1.3325181841015036e-06 0 -7.546828035703463e-06 -1.2794727286300114e-06 0 -7.1138737732502909e-06 -1.3325181841015036e-06 0 -9.5368400997886154e-06 -2.6394961648320108e-06 0 -7.1138737732502909e-06 -1.3325181841015036e-06 0 -8.6624096946590366e-06 -2.5610623151087024e-06 0 -6.3240768636411359e-06 -1.7648461939590962e-06 0 -8.6624096946590366e-06 -2.5610623151087024e-06 0 -6.3240768636411359e-06 -1.7648461939590962e-06 0 -8.8075751254416883e-06 -3.6672162704199142e-06 0 -7.1138737732502909e-06 -1.3325181841015036e-06 0 -8.6624096946590366e-06 -2.5610623151087024e-06 0 -9.5368400997886154e-06 -2.6394961648320108e-06 0 -8.6624096946590366e-06 -2.5610623151087024e-06 0 -9.5368400997886154e-06 -2.6394961648320108e-06 0 -1.1770678957666482e-05 -4.5379532277739851e-06 0 -6.3240768636411359e-06 -1.7648461939590962e-06 0 -4.0247495866825568e-06 -1.7093499167764837e-06 0 -5.9781970287891438e-06 -3.2419328230136889e-06 0 -6.3240768636411359e-06 -1.7648461939590962e-06 0 -4.2065409382032197e-06 -6.6740790447860203e-07 0 -4.0247495866825568e-06 -1.7093499167764837e-06 0 -7.1138737732502909e-06 -1.3325181841015036e-06 0 -6.3240768636411359e-06 -1.7648461939590962e-06 0 -5.314080350446824e-06 -6.3045205593360149e-07 0 -6.3240768636411359e-06 -1.7648461939590962e-06 0 -4.2065409382032197e-06 -6.6740790447860203e-07 0 -5.314080350446824e-06 -6.3045205593360149e-07 0 -4.2065409382032197e-06 -6.6740790447860203e-07 0 -5.314080350446824e-06 -6.3045205593360149e-07 0 -3.6141322822255236e-06 2.390434168983254e-07 0 -5.2876196088489819e-06 -1.6235353926655271e-07 0 -7.1138737732502909e-06 -1.3325181841015036e-06 0 -5.314080350446824e-06 -6.3045205593360149e-07 0 -5.2876196088489819e-06 -1.6235353926655271e-07 0 -5.314080350446824e-06 -6.3045205593360149e-07 0 -3.6141322822255236e-06 2.390434168983254e-07 0 -3.8206761110173726e-06 4.8990725864776604e-07 0 -5.2876196088489819e-06 -1.6235353926655271e-07 0 -3.6141322822255236e-06 2.390434168983254e-07 0 -2.6633011216602534e-06 8.3029738222269856e-07 0 -3.6141322822255236e-06 2.390434168983254e-07 0 -2.2069505513411977e-06 6.5749277246200109e-07 0 -3.6141322822255236e-06 2.390434168983254e-07 0 -2.2069505513411977e-06 6.5749277246200109e-07 0 -2.5488376123248072e-06 9.1580356126340534e-08 0 -2.2069505513411977e-06 6.5749277246200109e-07 0 -2.5488376123248072e-06 9.1580356126340534e-08 0 -1.3064407619432534e-06 6.4309854510607621e-07 0 -2.5488376123248072e-06 9.1580356126340534e-08 0 -1.3438838261538281e-06 -1.8081293597638594e-07 0 -2.7405080999843214e-06 -7.0798109234769004e-07 0 -2.5488376123248072e-06 9.1580356126340534e-08 0 -1.3064407619432534e-06 6.4309854510607621e-07 0 -1.3438838261538281e-06 -1.8081293597638594e-07 0 -4.2065409382032197e-06 -6.6740790447860203e-07 0 -3.6141322822255236e-06 2.390434168983254e-07 0 -2.5488376123248072e-06 9.1580356126340534e-08 0 -4.9300312916952359e-07 1.1024209162806433e-06 0 -3.211881100534085e-07 4.6005910495786264e-07 0 3.3279791687297992e-07 8.2750920950370325e-07 0 -4.9300312916952359e-07 1.1024209162806433e-06 0 -3.211881100534085e-07 4.6005910495786264e-07 0 -1.3064407619432534e-06 6.4309854510607621e-07 0 -3.211881100534085e-07 4.6005910495786264e-07 0 -1.3064407619432534e-06 6.4309854510607621e-07 0 -1.3438838261538281e-06 -1.8081293597638594e-07 0 -3.211881100534085e-07 4.6005910495786264e-07 0 2.3976143028086095e-08 -6.8222233365580533e-07 0 8.0076493204862665e-07 2.8830635537618123e-07 0 -3.211881100534085e-07 4.6005910495786264e-07 0 2.3976143028086095e-08 -6.8222233365580533e-07 0 -1.3438838261538281e-06 -1.8081293597638594e-07 0 2.3976143028086095e-08 -6.8222233365580533e-07 0 -1.3438838261538281e-06 -1.8081293597638594e-07 0 -1.8860910134469536e-06 -1.3364309759496432e-06 0 2.3976143028086095e-08 -6.8222233365580533e-07 0 -1.8860910134469536e-06 -1.3364309759496432e-06 0 -5.5981417373233461e-07 -2.2563486149565846e-06 0 2.3976143028086095e-08 -6.8222233365580533e-07 0 -5.5981417373233461e-07 -2.2563486149565846e-06 0 1.298012071119046e-06 -1.8181251095974413e-06 0 -4.2065409382032197e-06 -6.6740790447860203e-07 0 -2.5488376123248072e-06 9.1580356126340534e-08 0 -2.7405080999843214e-06 -7.0798109234769004e-07 0 -4.2065409382032197e-06 -6.6740790447860203e-07 0 -2.7405080999843214e-06 -7.0798109234769004e-07 0 -4.0247495866825568e-06 -1.7093499167764837e-06 0 -1.3438838261538281e-06 -1.8081293597638594e-07 0 -2.7405080999843214e-06 -7.0798109234769004e-07 0 -1.8860910134469536e-06 -1.3364309759496432e-06 0 -1.8860910134469536e-06 -1.3364309759496432e-06 0 -4.0247495866825568e-06 -1.7093499167764837e-06 0 -3.0863721405205669e-06 -2.857723813569459e-06 0 -2.7405080999843214e-06 -7.0798109234769004e-07 0 -1.8860910134469536e-06 -1.3364309759496432e-06 0 -4.0247495866825568e-06 -1.7093499167764837e-06 0 -4.0247495866825568e-06 -1.7093499167764837e-06 0 -3.0863721405205669e-06 -2.857723813569459e-06 0 -5.9781970287891438e-06 -3.2419328230136889e-06 0 -3.0863721405205669e-06 -2.857723813569459e-06 0 -1.4530924855431284e-06 -4.0358591356225831e-06 0 -4.9851100758646751e-06 -5.1832006782793429e-06 0 -3.0863721405205669e-06 -2.857723813569459e-06 0 -4.9851100758646751e-06 -5.1832006782793429e-06 0 -5.9781970287891438e-06 -3.2419328230136889e-06 0 -5.5981417373233461e-07 -2.2563486149565846e-06 0 9.9115314809848729e-07 -3.5025606571283857e-06 0 1.298012071119046e-06 -1.8181251095974413e-06 0 -1.8860910134469536e-06 -1.3364309759496432e-06 0 -3.0863721405205669e-06 -2.857723813569459e-06 0 -5.5981417373233461e-07 -2.2563486149565846e-06 0 -3.0863721405205669e-06 -2.857723813569459e-06 0 -5.5981417373233461e-07 -2.2563486149565846e-06 0 -1.4530924855431284e-06 -4.0358591356225831e-06 0 -5.5981417373233461e-07 -2.2563486149565846e-06 0 -1.4530924855431284e-06 -4.0358591356225831e-06 0 9.9115314809848729e-07 -3.5025606571283857e-06 0 -1.4530924855431284e-06 -4.0358591356225831e-06 0 1.8668269782863708e-07 -5.654547593107812e-06 0 9.9115314809848729e-07 -3.5025606571283857e-06 0 -1.4530924855431284e-06 -4.0358591356225831e-06 0 1.8668269782863708e-07 -5.654547593107812e-06 0 -2.340568732779857e-06 -6.6558004040882143e-06 0 -2.340568732779857e-06 -6.6558004040882143e-06 0 -3.8810248119045889e-06 -1.0152813042444187e-05 0 -1.0825814492739831e-06 -8.9370959715542148e-06 0 1.8668269782863708e-07 -5.654547593107812e-06 0 -2.340568732779857e-06 -6.6558004040882143e-06 0 -1.0825814492739831e-06 -8.9370959715542148e-06 0 1.8668269782863708e-07 -5.654547593107812e-06 0 1.6600615269533593e-06 -7.5318360141204794e-06 0 -1.0825814492739831e-06 -8.9370959715542148e-06 0 -4.9851100758646751e-06 -5.1832006782793429e-06 0 -2.340568732779857e-06 -6.6558004040882143e-06 0 -5.485087805483095e-06 -7.8817222215642742e-06 0 -1.4530924855431284e-06 -4.0358591356225831e-06 0 -4.9851100758646751e-06 -5.1832006782793429e-06 0 -2.340568732779857e-06 -6.6558004040882143e-06 0 -2.340568732779857e-06 -6.6558004040882143e-06 0 -5.485087805483095e-06 -7.8817222215642742e-06 0 -3.8810248119045889e-06 -1.0152813042444187e-05 0 -4.9851100758646751e-06 -5.1832006782793429e-06 0 -5.485087805483095e-06 -7.8817222215642742e-06 0 -8.7843213423747803e-06 -7.8956656843005528e-06 0 -5.485087805483095e-06 -7.8817222215642742e-06 0 -8.7843213423747803e-06 -7.8956656843005528e-06 0 -7.4635836442674222e-06 -1.0065501065020698e-05 0 -4.9851100758646751e-06 -5.1832006782793429e-06 0 -8.7843213423747803e-06 -7.8956656843005528e-06 0 -8.6373200216746778e-06 -5.4287019723163975e-06 0 -8.7843213423747803e-06 -7.8956656843005528e-06 0 -1.204425876116302e-05 -7.8839901244697454e-06 0 -8.6373200216746778e-06 -5.4287019723163975e-06 0 -8.7843213423747803e-06 -7.8956656843005528e-06 0 -1.204425876116302e-05 -7.8839901244697454e-06 0 -1.2683705206768875e-05 -1.1798909415851992e-05 0 -1.204425876116302e-05 -7.8839901244697454e-06 0 -1.6629515792983028e-05 -1.0705279577398125e-05 0 -1.2683705206768875e-05 -1.1798909415851992e-05 0 -1.204425876116302e-05 -7.8839901244697454e-06 0 -1.6629515792983028e-05 -1.0705279577398125e-05 0 -1.4161620839644799e-05 -7.2245293815601478e-06 0 -1.204425876116302e-05 -7.8839901244697454e-06 0 -1.4161620839644799e-05 -7.2245293815601478e-06 0 -1.1094960032061409e-05 -5.6567135787812612e-06 0 -1.204425876116302e-05 -7.8839901244697454e-06 0 -1.1094960032061409e-05 -5.6567135787812612e-06 0 -8.6373200216746778e-06 -5.4287019723163975e-06 0 -1.1094960032061409e-05 -5.6567135787812612e-06 0 -1.1770678957666482e-05 -4.5379532277739851e-06 0 -8.8075751254416883e-06 -3.6672162704199142e-06 0 -1.1094960032061409e-05 -5.6567135787812612e-06 0 -8.8075751254416883e-06 -3.6672162704199142e-06 0 -8.6373200216746778e-06 -5.4287019723163975e-06 0 -1.4161620839644799e-05 -7.2245293815601478e-06 0 -1.1094960032061409e-05 -5.6567135787812612e-06 0 -1.1770678957666482e-05 -4.5379532277739851e-06 0 -8.6624096946590366e-06 -2.5610623151087024e-06 0 -1.1770678957666482e-05 -4.5379532277739851e-06 0 -8.8075751254416883e-06 -3.6672162704199142e-06 0 -6.3240768636411359e-06 -1.7648461939590962e-06 0 -8.8075751254416883e-06 -3.6672162704199142e-06 0 -5.9781970287891438e-06 -3.2419328230136889e-06 0 -4.9851100758646751e-06 -5.1832006782793429e-06 0 -5.9781970287891438e-06 -3.2419328230136889e-06 0 -8.6373200216746778e-06 -5.4287019723163975e-06 0 -8.8075751254416883e-06 -3.6672162704199142e-06 0 -5.9781970287891438e-06 -3.2419328230136889e-06 0 -8.6373200216746778e-06 -5.4287019723163975e-06 0 3.8930957641166885e-06 -2.1629340845217554e-06 0 4.1812086021614161e-06 -9.2387744460965448e-07 0 4.5017426815679438e-06 -1.6955143570928556e-06 0 3.8930957641166885e-06 -2.1629340845217554e-06 0 3.587121964987194e-06 -1.2511311572898615e-06 0 4.1812086021614161e-06 -9.2387744460965448e-07 0 3.8930957641166885e-06 -2.1629340845217554e-06 0 3.587121964987194e-06 -1.2511311572898615e-06 0 3.1450638280711303e-06 -2.1387528650922421e-06 0 4.1812086021614161e-06 -9.2387744460965448e-07 0 4.9188977129099181e-06 -3.08638331117345e-07 0 4.5017426815679438e-06 -1.6955143570928556e-06 0 4.9188977129099181e-06 -3.08638331117345e-07 0 5.4536541538984936e-06 -6.2835696650327601e-07 0 5.6913219603366881e-06 6.0979264795814713e-07 0 4.9188977129099181e-06 -3.08638331117345e-07 0 5.4536541538984936e-06 -6.2835696650327601e-07 0 4.5017426815679438e-06 -1.6955143570928556e-06 0 5.4536541538984936e-06 -6.2835696650327601e-07 0 4.5017426815679438e-06 -1.6955143570928556e-06 0 4.9374035110923301e-06 -1.9752206112666837e-06 0 4.5017426815679438e-06 -1.6955143570928556e-06 0 4.9374035110923301e-06 -1.9752206112666837e-06 0 4.5000630770184112e-06 -3.2387658198038389e-06 0 5.4536541538984936e-06 -6.2835696650327601e-07 0 4.9374035110923301e-06 -1.9752206112666837e-06 0 5.3698017583070059e-06 -2.4334507272521157e-06 0 4.9374035110923301e-06 -1.9752206112666837e-06 0 5.3698017583070059e-06 -2.4334507272521157e-06 0 4.5000630770184112e-06 -3.2387658198038389e-06 0 4.5000630770184112e-06 -3.2387658198038389e-06 0 3.9174920887612584e-06 -3.3793365114139446e-06 0 3.8156851966871248e-06 -4.9350039811530666e-06 0 4.5017426815679438e-06 -1.6955143570928556e-06 0 4.5000630770184112e-06 -3.2387658198038389e-06 0 3.9174920887612584e-06 -3.3793365114139446e-06 0 3.8930957641166885e-06 -2.1629340845217554e-06 0 4.5017426815679438e-06 -1.6955143570928556e-06 0 3.9174920887612584e-06 -3.3793365114139446e-06 0 3.8930957641166885e-06 -2.1629340845217554e-06 0 3.9174920887612584e-06 -3.3793365114139446e-06 0 3.4931603345270122e-06 -3.3324756607278182e-06 0 3.9174920887612584e-06 -3.3793365114139446e-06 0 3.3481806330640742e-06 -4.8862790137470942e-06 0 3.8156851966871248e-06 -4.9350039811530666e-06 0 3.3481806330640742e-06 -4.8862790137470942e-06 0 3.399718805973319e-06 -4.6869609182113992e-06 0 3.9182952302692033e-06 -6.6334407921112964e-06 0 3.3481806330640742e-06 -4.8862790137470942e-06 0 3.399718805973319e-06 -4.6869609182113992e-06 0 3.4931603345270122e-06 -3.3324756607278182e-06 0 3.399718805973319e-06 -4.6869609182113992e-06 0 3.4931603345270122e-06 -3.3324756607278182e-06 0 2.7267677336505573e-06 -3.0647454810318588e-06 0 3.9174920887612584e-06 -3.3793365114139446e-06 0 3.3481806330640742e-06 -4.8862790137470942e-06 0 3.4931603345270122e-06 -3.3324756607278182e-06 0 1.6600615269533593e-06 -7.5318360141204794e-06 0 2.4916047357395647e-06 -4.9824969611659113e-06 0 3.9182952302692033e-06 -6.6334407921112964e-06 0 1.8668269782863708e-07 -5.654547593107812e-06 0 1.6600615269533593e-06 -7.5318360141204794e-06 0 2.4916047357395647e-06 -4.9824969611659113e-06 0 3.399718805973319e-06 -4.6869609182113992e-06 0 2.4916047357395647e-06 -4.9824969611659113e-06 0 3.9182952302692033e-06 -6.6334407921112964e-06 0 3.399718805973319e-06 -4.6869609182113992e-06 0 2.4916047357395647e-06 -4.9824969611659113e-06 0 2.7267677336505573e-06 -3.0647454810318588e-06 0 1.8668269782863708e-07 -5.654547593107812e-06 0 2.4916047357395647e-06 -4.9824969611659113e-06 0 9.9115314809848729e-07 -3.5025606571283857e-06 0 2.4916047357395647e-06 -4.9824969611659113e-06 0 9.9115314809848729e-07 -3.5025606571283857e-06 0 2.7267677336505573e-06 -3.0647454810318588e-06 0 9.9115314809848729e-07 -3.5025606571283857e-06 0 2.7267677336505573e-06 -3.0647454810318588e-06 0 1.298012071119046e-06 -1.8181251095974413e-06 0 2.7267677336505573e-06 -3.0647454810318588e-06 0 1.298012071119046e-06 -1.8181251095974413e-06 0 2.3861671793256975e-06 -1.3282342452673288e-06 0 3.8930957641166885e-06 -2.1629340845217554e-06 0 3.4931603345270122e-06 -3.3324756607278182e-06 0 3.1450638280711303e-06 -2.1387528650922421e-06 0 3.4931603345270122e-06 -3.3324756607278182e-06 0 2.7267677336505573e-06 -3.0647454810318588e-06 0 3.1450638280711303e-06 -2.1387528650922421e-06 0 2.7267677336505573e-06 -3.0647454810318588e-06 0 3.1450638280711303e-06 -2.1387528650922421e-06 0 2.3861671793256975e-06 -1.3282342452673288e-06 0 3.1450638280711303e-06 -2.1387528650922421e-06 0 2.3861671793256975e-06 -1.3282342452673288e-06 0 2.9785617575609872e-06 -2.8627225215002785e-07 0 3.587121964987194e-06 -1.2511311572898615e-06 0 3.1450638280711303e-06 -2.1387528650922421e-06 0 2.9785617575609872e-06 -2.8627225215002785e-07 0 2.3861671793256975e-06 -1.3282342452673288e-06 0 2.2565026489734456e-06 -3.4873587346216616e-07 0 2.9785617575609872e-06 -2.8627225215002785e-07 0 2.2565026489734456e-06 -3.4873587346216616e-07 0 2.9785617575609872e-06 -2.8627225215002785e-07 0 2.4268269233848962e-06 2.4557348283191095e-07 0 2.3976143028086095e-08 -6.8222233365580533e-07 0 1.298012071119046e-06 -1.8181251095974413e-06 0 1.4768521786064071e-06 -5.6126280639628542e-07 0 1.298012071119046e-06 -1.8181251095974413e-06 0 2.3861671793256975e-06 -1.3282342452673288e-06 0 1.4768521786064071e-06 -5.6126280639628542e-07 0 2.3861671793256975e-06 -1.3282342452673288e-06 0 2.2565026489734456e-06 -3.4873587346216616e-07 0 1.4768521786064071e-06 -5.6126280639628542e-07 0 2.2565026489734456e-06 -3.4873587346216616e-07 0 1.4768521786064071e-06 -5.6126280639628542e-07 0 1.7430374471861925e-06 2.5905284158116843e-07 0 2.3976143028086095e-08 -6.8222233365580533e-07 0 1.4768521786064071e-06 -5.6126280639628542e-07 0 8.0076493204862665e-07 2.8830635537618123e-07 0 1.4768521786064071e-06 -5.6126280639628542e-07 0 8.0076493204862665e-07 2.8830635537618123e-07 0 1.7430374471861925e-06 2.5905284158116843e-07 0 8.0076493204862665e-07 2.8830635537618123e-07 0 1.7430374471861925e-06 2.5905284158116843e-07 0 1.1610216043703524e-06 9.0899358877971599e-07 0 8.0076493204862665e-07 2.8830635537618123e-07 0 3.3279791687297992e-07 8.2750920950370325e-07 0 1.1610216043703524e-06 9.0899358877971599e-07 0 -3.211881100534085e-07 4.6005910495786264e-07 0 8.0076493204862665e-07 2.8830635537618123e-07 0 3.3279791687297992e-07 8.2750920950370325e-07 0 2.9785617575609872e-06 -2.8627225215002785e-07 0 2.4268269233848962e-06 2.4557348283191095e-07 0 2.8447445464858273e-06 5.7474507317301008e-07 0 2.2565026489734456e-06 -3.4873587346216616e-07 0 2.4268269233848962e-06 2.4557348283191095e-07 0 1.7430374471861925e-06 2.5905284158116843e-07 0 2.4268269233848962e-06 2.4557348283191095e-07 0 1.7430374471861925e-06 2.5905284158116843e-07 0 2.0432790178440488e-06 7.1960030402061011e-07 0 1.7430374471861925e-06 2.5905284158116843e-07 0 2.0432790178440488e-06 7.1960030402061011e-07 0 1.1610216043703524e-06 9.0899358877971599e-07 0 2.4268269233848962e-06 2.4557348283191095e-07 0 2.0432790178440488e-06 7.1960030402061011e-07 0 2.8447445464858273e-06 5.7474507317301008e-07 0 2.0432790178440488e-06 7.1960030402061011e-07 0 2.8447445464858273e-06 5.7474507317301008e-07 0 2.0694971236104123e-06 1.010634044553835e-06 0 2.8447445464858273e-06 5.7474507317301008e-07 0 3.6698854109436811e-06 5.8234504063347204e-07 0 2.8363089717402012e-06 8.6732547515320298e-07 0 3.6698854109436811e-06 5.8234504063347204e-07 0 3.6757332000519561e-06 8.1048167678841671e-07 0 2.8363089717402012e-06 8.6732547515320298e-07 0 2.8447445464858273e-06 5.7474507317301008e-07 0 3.6698854109436811e-06 5.8234504063347204e-07 0 3.5038142865466757e-06 1.417732506001115e-07 0 2.9785617575609872e-06 -2.8627225215002785e-07 0 2.8447445464858273e-06 5.7474507317301008e-07 0 3.5038142865466757e-06 1.417732506001115e-07 0 2.9785617575609872e-06 -2.8627225215002785e-07 0 3.5038142865466757e-06 1.417732506001115e-07 0 3.7314000125006812e-06 -4.3400588621182135e-07 0 3.5038142865466757e-06 1.417732506001115e-07 0 3.7314000125006812e-06 -4.3400588621182135e-07 0 4.2837670072910378e-06 1.0124736782538035e-07 0 3.6698854109436811e-06 5.8234504063347204e-07 0 3.5038142865466757e-06 1.417732506001115e-07 0 4.2837670072910378e-06 1.0124736782538035e-07 0 4.1812086021614161e-06 -9.2387744460965448e-07 0 3.7314000125006812e-06 -4.3400588621182135e-07 0 4.2837670072910378e-06 1.0124736782538035e-07 0 3.587121964987194e-06 -1.2511311572898615e-06 0 4.1812086021614161e-06 -9.2387744460965448e-07 0 3.7314000125006812e-06 -4.3400588621182135e-07 0 3.587121964987194e-06 -1.2511311572898615e-06 0 2.9785617575609872e-06 -2.8627225215002785e-07 0 3.7314000125006812e-06 -4.3400588621182135e-07 0 4.9188977129099181e-06 -3.08638331117345e-07 0 4.9876725641594215e-06 4.6524631815064565e-07 0 5.6913219603366881e-06 6.0979264795814713e-07 0 4.9188977129099181e-06 -3.08638331117345e-07 0 4.9876725641594215e-06 4.6524631815064565e-07 0 4.2837670072910378e-06 1.0124736782538035e-07 0 4.1812086021614161e-06 -9.2387744460965448e-07 0 4.9188977129099181e-06 -3.08638331117345e-07 0 4.2837670072910378e-06 1.0124736782538035e-07 0 3.6698854109436811e-06 5.8234504063347204e-07 0 4.2837670072910378e-06 1.0124736782538035e-07 0 4.4747720404834222e-06 6.5876954430789066e-07 0 4.9876725641594215e-06 4.6524631815064565e-07 0 4.4747720404834222e-06 6.5876954430789066e-07 0 5.4646433311896074e-06 1.0126552264678416e-06 0 4.9876725641594215e-06 4.6524631815064565e-07 0 4.2837670072910378e-06 1.0124736782538035e-07 0 4.4747720404834222e-06 6.5876954430789066e-07 0 4.4747720404834222e-06 6.5876954430789066e-07 0 3.6757332000519561e-06 8.1048167678841671e-07 0 4.5621370218973199e-06 8.6249770511448004e-07 0 3.6698854109436811e-06 5.8234504063347204e-07 0 4.4747720404834222e-06 6.5876954430789066e-07 0 3.6757332000519561e-06 8.1048167678841671e-07 0 3.6757332000519561e-06 8.1048167678841671e-07 0 3.7611110688847384e-06 8.1957946348886675e-07 0 4.5621370218973199e-06 8.6249770511448004e-07 0 3.7611110688847384e-06 8.1957946348886675e-07 0 2.9193287193408594e-06 7.9198458914398649e-07 0 3.0355257867252958e-06 8.8207667689509877e-07 0 2.9193287193408594e-06 7.9198458914398649e-07 0 3.0355257867252958e-06 8.8207667689509877e-07 0 2.390705213918473e-06 9.6811529743721575e-07 0 3.6757332000519561e-06 8.1048167678841671e-07 0 3.0355257867252958e-06 8.8207667689509877e-07 0 2.8363089717402012e-06 8.6732547515320298e-07 0 3.6757332000519561e-06 8.1048167678841671e-07 0 3.7611110688847384e-06 8.1957946348886675e-07 0 3.0355257867252958e-06 8.8207667689509877e-07 0 2.8447445464858273e-06 5.7474507317301008e-07 0 2.8363089717402012e-06 8.6732547515320298e-07 0 2.0694971236104123e-06 1.010634044553835e-06 0 2.390705213918473e-06 9.6811529743721575e-07 0 1.6802551823070154e-06 1.0839992302508029e-06 0 2.0694971236104123e-06 1.010634044553835e-06 0 2.8363089717402012e-06 8.6732547515320298e-07 0 2.390705213918473e-06 9.6811529743721575e-07 0 2.0694971236104123e-06 1.010634044553835e-06 0 3.0355257867252958e-06 8.8207667689509877e-07 0 2.8363089717402012e-06 8.6732547515320298e-07 0 2.390705213918473e-06 9.6811529743721575e-07 0 2.390705213918473e-06 9.6811529743721575e-07 0 1.6589309867500132e-06 9.1124599287278924e-07 0 2.197030967584698e-06 8.0941885507697119e-07 0 2.390705213918473e-06 9.6811529743721575e-07 0 1.6802551823070154e-06 1.0839992302508029e-06 0 1.6589309867500132e-06 9.1124599287278924e-07 0 1.6802551823070154e-06 1.0839992302508029e-06 0 1.6589309867500132e-06 9.1124599287278924e-07 0 1.1055942772784552e-06 9.5568572316619633e-07 0 1.6589309867500132e-06 9.1124599287278924e-07 0 2.197030967584698e-06 8.0941885507697119e-07 0 1.5244459055611381e-06 6.5814207111108311e-07 0 2.197030967584698e-06 8.0941885507697119e-07 0 1.5244459055611381e-06 6.5814207111108311e-07 0 1.8476532553803602e-06 4.671236782739949e-07 0 2.197030967584698e-06 8.0941885507697119e-07 0 1.8476532553803602e-06 4.671236782739949e-07 0 2.6173887779329542e-06 5.9752943982610949e-07 0 2.9193287193408594e-06 7.9198458914398649e-07 0 2.197030967584698e-06 8.0941885507697119e-07 0 2.6173887779329542e-06 5.9752943982610949e-07 0 2.9193287193408594e-06 7.9198458914398649e-07 0 2.390705213918473e-06 9.6811529743721575e-07 0 2.197030967584698e-06 8.0941885507697119e-07 0 3.3279791687297992e-07 8.2750920950370325e-07 0 4.2292560427963202e-07 1.183195284080984e-06 0 1.1610216043703524e-06 9.0899358877971599e-07 0 4.2292560427963202e-07 1.183195284080984e-06 0 1.1610216043703524e-06 9.0899358877971599e-07 0 1.099237010013233e-06 1.19529218888361e-06 0 4.2292560427963202e-07 1.183195284080984e-06 0 1.099237010013233e-06 1.19529218888361e-06 0 4.8010106518815864e-07 1.3037066640999354e-06 0 1.099237010013233e-06 1.19529218888361e-06 0 1.6114644137174531e-06 1.0115011570995222e-06 0 1.4971093895578969e-06 1.1487635097021245e-06 0 1.1610216043703524e-06 9.0899358877971599e-07 0 1.099237010013233e-06 1.19529218888361e-06 0 1.6114644137174531e-06 1.0115011570995222e-06 0 2.0432790178440488e-06 7.1960030402061011e-07 0 1.1610216043703524e-06 9.0899358877971599e-07 0 1.6114644137174531e-06 1.0115011570995222e-06 0 2.0432790178440488e-06 7.1960030402061011e-07 0 1.6114644137174531e-06 1.0115011570995222e-06 0 2.0694971236104123e-06 1.010634044553835e-06 0 1.6114644137174531e-06 1.0115011570995222e-06 0 2.0694971236104123e-06 1.010634044553835e-06 0 1.4971093895578969e-06 1.1487635097021245e-06 0 1.6802551823070154e-06 1.0839992302508029e-06 0 2.0694971236104123e-06 1.010634044553835e-06 0 1.4971093895578969e-06 1.1487635097021245e-06 0 1.6802551823070154e-06 1.0839992302508029e-06 0 1.4971093895578969e-06 1.1487635097021245e-06 0 9.5482905863803361e-07 1.2108604557922578e-06 0 1.6802551823070154e-06 1.0839992302508029e-06 0 9.5482905863803361e-07 1.2108604557922578e-06 0 1.1055942772784552e-06 9.5568572316619633e-07 0 1.099237010013233e-06 1.19529218888361e-06 0 1.4971093895578969e-06 1.1487635097021245e-06 0 9.5482905863803361e-07 1.2108604557922578e-06 0 1.099237010013233e-06 1.19529218888361e-06 0 9.5482905863803361e-07 1.2108604557922578e-06 0 4.8010106518815864e-07 1.3037066640999354e-06 0 9.5482905863803361e-07 1.2108604557922578e-06 0 4.8010106518815864e-07 1.3037066640999354e-06 0 2.3316739914231959e-07 1.2500405547063201e-06 0 -6.3735427058842686e-08 1.3102399836979613e-06 0 4.8010106518815864e-07 1.3037066640999354e-06 0 2.3316739914231959e-07 1.2500405547063201e-06 0 -1.970391124853362e-07 1.3163691645740293e-06 0 4.2292560427963202e-07 1.183195284080984e-06 0 4.8010106518815864e-07 1.3037066640999354e-06 0 -1.970391124853362e-07 1.3163691645740293e-06 0 -6.3735427058842686e-08 1.3102399836979613e-06 0 4.8010106518815864e-07 1.3037066640999354e-06 0 -2.8931143415244974e-08 1.1314123108554174e-06 0 4.081308083575089e-07 1.0637584509327848e-06 0 9.2159102256277439e-08 7.0934608495993325e-07 0 -2.8931143415244974e-08 1.1314123108554174e-06 0 -6.3735427058842686e-08 1.3102399836979613e-06 0 2.3316739914231959e-07 1.2500405547063201e-06 0 -2.8931143415244974e-08 1.1314123108554174e-06 0 2.3316739914231959e-07 1.2500405547063201e-06 0 4.081308083575089e-07 1.0637584509327848e-06 0 9.5482905863803361e-07 1.2108604557922578e-06 0 2.3316739914231959e-07 1.2500405547063201e-06 0 4.081308083575089e-07 1.0637584509327848e-06 0 4.081308083575089e-07 1.0637584509327848e-06 0 2.5449085940345645e-07 6.116141237629431e-07 0 9.2159102256277439e-08 7.0934608495993325e-07 0 4.081308083575089e-07 1.0637584509327848e-06 0 6.403510595362255e-07 9.2618303230871364e-07 0 2.5449085940345645e-07 6.116141237629431e-07 0 9.5482905863803361e-07 1.2108604557922578e-06 0 4.081308083575089e-07 1.0637584509327848e-06 0 6.403510595362255e-07 9.2618303230871364e-07 0 9.5482905863803361e-07 1.2108604557922578e-06 0 6.403510595362255e-07 9.2618303230871364e-07 0 1.1055942772784552e-06 9.5568572316619633e-07 0 6.403510595362255e-07 9.2618303230871364e-07 0 1.1055942772784552e-06 9.5568572316619633e-07 0 4.4219471024529598e-07 5.7115995200751956e-07 0 6.403510595362255e-07 9.2618303230871364e-07 0 2.5449085940345645e-07 6.116141237629431e-07 0 4.4219471024529598e-07 5.7115995200751956e-07 0 2.965645825825474e-10 2.7984371829248509e-10 0 2.5449085940345645e-07 6.116141237629431e-07 0 4.4219471024529598e-07 5.7115995200751956e-07 0 2.965645825825474e-10 2.7984371829248509e-10 0 2.5449085940345645e-07 6.116141237629431e-07 0 1.7356422261032109e-10 2.7867824831921234e-10 0 2.5449085940345645e-07 6.116141237629431e-07 0 1.7356422261032109e-10 2.7867824831921234e-10 0 9.2159102256277439e-08 7.0934608495993325e-07 0 1.7356422261032109e-10 2.7867824831921234e-10 0 -1.4116417342527322e-11 3.1892107420336934e-10 0 9.2159102256277439e-08 7.0934608495993325e-07 0 -8.4134852603930479e-08 6.5232869929071474e-07 0 -1.4116417342527322e-11 3.1892107420336934e-10 0 9.2159102256277439e-08 7.0934608495993325e-07 0 9.4559341919792317e-07 3.5903864399775957e-07 0 1.5244459055611381e-06 6.5814207111108311e-07 0 9.1951922707639731e-07 6.2094586497977009e-07 0 9.4559341919792317e-07 3.5903864399775957e-07 0 1.5244459055611381e-06 6.5814207111108311e-07 0 1.8476532553803602e-06 4.671236782739949e-07 0 1.6589309867500132e-06 9.1124599287278924e-07 0 1.5244459055611381e-06 6.5814207111108311e-07 0 9.1951922707639731e-07 6.2094586497977009e-07 0 1.6589309867500132e-06 9.1124599287278924e-07 0 1.1055942772784552e-06 9.5568572316619633e-07 0 9.1951922707639731e-07 6.2094586497977009e-07 0 1.1055942772784552e-06 9.5568572316619633e-07 0 9.1951922707639731e-07 6.2094586497977009e-07 0 4.4219471024529598e-07 5.7115995200751956e-07 0 9.1951922707639731e-07 6.2094586497977009e-07 0 3.7929031873586659e-07 3.4777896051614704e-07 0 4.4219471024529598e-07 5.7115995200751956e-07 0 2.965645825825474e-10 2.7984371829248509e-10 0 4.4219471024529598e-07 5.7115995200751956e-07 0 4.7053259045801454e-10 1.8334532453288503e-10 0 3.7929031873586659e-07 3.4777896051614704e-07 0 4.4219471024529598e-07 5.7115995200751956e-07 0 4.7053259045801454e-10 1.8334532453288503e-10 0 3.7929031873586659e-07 3.4777896051614704e-07 0 4.7053259045801454e-10 1.8334532453288503e-10 0 5.5488561190361382e-10 1.5421607380905583e-10 0 3.7929031873586659e-07 3.4777896051614704e-07 0 5.5488561190361382e-10 1.5421607380905583e-10 0 4.0143303653839343e-07 2.5784722995680471e-07 0 9.4559341919792317e-07 3.5903864399775957e-07 0 4.0143303653839343e-07 2.5784722995680471e-07 0 5.9898954219411812e-10 1.2848664505964596e-10 0 9.4559341919792317e-07 3.5903864399775957e-07 0 9.1951922707639731e-07 6.2094586497977009e-07 0 4.0143303653839343e-07 2.5784722995680471e-07 0 9.1951922707639731e-07 6.2094586497977009e-07 0 3.7929031873586659e-07 3.4777896051614704e-07 0 4.0143303653839343e-07 2.5784722995680471e-07 0 5.5488561190361382e-10 1.5421607380905583e-10 0 4.0143303653839343e-07 2.5784722995680471e-07 0 5.9898954219411812e-10 1.2848664505964596e-10 0 9.4559341919792317e-07 3.5903864399775957e-07 0 5.9898954219411812e-10 1.2848664505964596e-10 0 6.161473557376315e-07 1.0087691415207857e-07 0 5.9898954219411812e-10 1.2848664505964596e-10 0 6.472388485147458e-10 -4.2655423177469144e-11 0 6.161473557376315e-07 1.0087691415207857e-07 0 6.472388485147458e-10 -4.2655423177469144e-11 0 6.161473557376315e-07 1.0087691415207857e-07 0 4.7061600046515435e-07 -4.9082015483008842e-08 0 6.161473557376315e-07 1.0087691415207857e-07 0 1.1670975130952361e-06 -2.3849721030903503e-08 0 4.7061600046515435e-07 -4.9082015483008842e-08 0 9.4559341919792317e-07 3.5903864399775957e-07 0 6.161473557376315e-07 1.0087691415207857e-07 0 1.2767891652907845e-06 1.9267607240504003e-07 0 9.4559341919792317e-07 3.5903864399775957e-07 0 1.2767891652907845e-06 1.9267607240504003e-07 0 1.8476532553803602e-06 4.671236782739949e-07 0 6.161473557376315e-07 1.0087691415207857e-07 0 1.2767891652907845e-06 1.9267607240504003e-07 0 1.1670975130952361e-06 -2.3849721030903503e-08 0 1.2767891652907845e-06 1.9267607240504003e-07 0 1.8485869862003161e-06 5.2529105923250067e-08 0 1.1670975130952361e-06 -2.3849721030903503e-08 0 1.2767891652907845e-06 1.9267607240504003e-07 0 1.8476532553803602e-06 4.671236782739949e-07 0 1.8485869862003161e-06 5.2529105923250067e-08 0 1.5713510528884543e-06 -2.7412916469341713e-07 0 1.8485869862003161e-06 5.2529105923250067e-08 0 1.1670975130952361e-06 -2.3849721030903503e-08 0 1.5713510528884543e-06 -2.7412916469341713e-07 0 6.7513629053372598e-07 -2.445787017141548e-07 0 1.1584958153498004e-06 -5.386800661989956e-07 0 1.5713510528884543e-06 -2.7412916469341713e-07 0 1.1670975130952361e-06 -2.3849721030903503e-08 0 6.7513629053372598e-07 -2.445787017141548e-07 0 1.1670975130952361e-06 -2.3849721030903503e-08 0 6.7513629053372598e-07 -2.445787017141548e-07 0 4.7061600046515435e-07 -4.9082015483008842e-08 0 6.472388485147458e-10 -4.2655423177469144e-11 0 4.7061600046515435e-07 -4.9082015483008842e-08 0 6.5924611316219207e-10 4.9295528353735232e-12 0 6.7513629053372598e-07 -2.445787017141548e-07 0 6.5924611316219207e-10 4.9295528353735232e-12 0 5.1532603684446246e-10 -2.0616969526900028e-10 0 6.7513629053372598e-07 -2.445787017141548e-07 0 4.7061600046515435e-07 -4.9082015483008842e-08 0 6.5924611316219207e-10 4.9295528353735232e-12 0 5.1532603684446246e-10 -2.0616969526900028e-10 0 5.2399287221074101e-07 -4.6635378667261172e-07 0 3.8194037581349852e-10 -2.6123591066287773e-10 0 6.7513629053372598e-07 -2.445787017141548e-07 0 5.2399287221074101e-07 -4.6635378667261172e-07 0 1.1584958153498004e-06 -5.386800661989956e-07 0 6.7513629053372598e-07 -2.445787017141548e-07 0 5.1532603684446246e-10 -2.0616969526900028e-10 0 5.2399287221074101e-07 -4.6635378667261172e-07 0 3.8194037581349852e-10 -2.6123591066287773e-10 0 3.411793698301902e-07 -7.3096474761481642e-07 0 1.6908383053682316e-10 -3.8660202093541729e-10 0 5.2399287221074101e-07 -4.6635378667261172e-07 0 3.8194037581349852e-10 -2.6123591066287773e-10 0 3.411793698301902e-07 -7.3096474761481642e-07 0 3.411793698301902e-07 -7.3096474761481642e-07 0 1.6908383053682316e-10 -3.8660202093541729e-10 0 8.0246300273255402e-08 -7.9135827893544975e-07 0 3.411793698301902e-07 -7.3096474761481642e-07 0 1.1245175209471446e-06 -9.3035499856600366e-07 0 4.3206895695904744e-07 -1.2355402816171605e-06 0 1.1245175209471446e-06 -9.3035499856600366e-07 0 1.0072253122244239e-06 -1.2076181383010243e-06 0 4.3206895695904744e-07 -1.2355402816171605e-06 0 5.2399287221074101e-07 -4.6635378667261172e-07 0 3.411793698301902e-07 -7.3096474761481642e-07 0 1.1245175209471446e-06 -9.3035499856600366e-07 0 1.0072253122244239e-06 -1.2076181383010243e-06 0 4.3206895695904744e-07 -1.2355402816171605e-06 0 8.2432811432068298e-07 -1.3843880883739217e-06 0 5.2399287221074101e-07 -4.6635378667261172e-07 0 1.1245175209471446e-06 -9.3035499856600366e-07 0 1.1584958153498004e-06 -5.386800661989956e-07 0 1.1245175209471446e-06 -9.3035499856600366e-07 0 1.1584958153498004e-06 -5.386800661989956e-07 0 1.8166091033777487e-06 -5.2095062025247573e-07 0 1.5713510528884543e-06 -2.7412916469341713e-07 0 1.1584958153498004e-06 -5.386800661989956e-07 0 1.8166091033777487e-06 -5.2095062025247573e-07 0 1.1245175209471446e-06 -9.3035499856600366e-07 0 1.8166091033777487e-06 -5.2095062025247573e-07 0 2.4253957407963981e-06 -6.5534636807901913e-07 0 1.8166091033777487e-06 -5.2095062025247573e-07 0 2.4253957407963981e-06 -6.5534636807901913e-07 0 2.6302380624285606e-06 -1.4043439499073365e-07 0 2.4253957407963981e-06 -6.5534636807901913e-07 0 3.4381971580585652e-06 -4.289026185210274e-08 0 2.6302380624285606e-06 -1.4043439499073365e-07 0 1.1245175209471446e-06 -9.3035499856600366e-07 0 2.4253957407963981e-06 -6.5534636807901913e-07 0 1.6828675377886416e-06 -1.064698439881034e-06 0 1.0072253122244239e-06 -1.2076181383010243e-06 0 1.6828675377886416e-06 -1.064698439881034e-06 0 8.2432811432068298e-07 -1.3843880883739217e-06 0 1.1245175209471446e-06 -9.3035499856600366e-07 0 1.0072253122244239e-06 -1.2076181383010243e-06 0 1.6828675377886416e-06 -1.064698439881034e-06 0 2.4253957407963981e-06 -6.5534636807901913e-07 0 1.6828675377886416e-06 -1.064698439881034e-06 0 2.3010691981692229e-06 -8.9449466453663665e-07 0 1.6828675377886416e-06 -1.064698439881034e-06 0 8.2432811432068298e-07 -1.3843880883739217e-06 0 1.1507411768411646e-06 -1.373763184803381e-06 0 1.6828675377886416e-06 -1.064698439881034e-06 0 2.3010691981692229e-06 -8.9449466453663665e-07 0 1.1507411768411646e-06 -1.373763184803381e-06 0 2.3010691981692229e-06 -8.9449466453663665e-07 0 2.5949820774689422e-06 -7.6740583039343074e-07 0 1.1507411768411646e-06 -1.373763184803381e-06 0 2.3010691981692229e-06 -8.9449466453663665e-07 0 2.5949820774689422e-06 -7.6740583039343074e-07 0 3.5469192889904085e-06 -2.9740473648128833e-07 0 2.5949820774689422e-06 -7.6740583039343074e-07 0 3.5469192889904085e-06 -2.9740473648128833e-07 0 3.9138692484507471e-06 -6.2799563192143592e-09 0 2.5949820774689422e-06 -7.6740583039343074e-07 0 9.8262965077287977e-07 -1.1560212357791361e-06 0 2.6023299160955162e-06 -4.3827013545512979e-07 0 2.5949820774689422e-06 -7.6740583039343074e-07 0 2.6023299160955162e-06 -4.3827013545512979e-07 0 3.9138692484507471e-06 -6.2799563192143592e-09 0 2.4253957407963981e-06 -6.5534636807901913e-07 0 3.5469192889904085e-06 -2.9740473648128833e-07 0 3.4381971580585652e-06 -4.289026185210274e-08 0 2.4253957407963981e-06 -6.5534636807901913e-07 0 2.3010691981692229e-06 -8.9449466453663665e-07 0 3.5469192889904085e-06 -2.9740473648128833e-07 0 3.5469192889904085e-06 -2.9740473648128833e-07 0 4.4426994768839518e-06 3.407028018067529e-07 0 3.4381971580585652e-06 -4.289026185210274e-08 0 3.5469192889904085e-06 -2.9740473648128833e-07 0 4.4426994768839518e-06 3.407028018067529e-07 0 5.0919428957865402e-06 6.153181759263592e-07 0 4.4426994768839518e-06 3.407028018067529e-07 0 3.4381971580585652e-06 -4.289026185210274e-08 0 4.0693304532260938e-06 4.4938188040124169e-07 0 4.4426994768839518e-06 3.407028018067529e-07 0 4.0693304532260938e-06 4.4938188040124169e-07 0 4.9529113501014325e-06 7.3074570039970407e-07 0 3.4381971580585652e-06 -4.289026185210274e-08 0 4.0693304532260938e-06 4.4938188040124169e-07 0 3.1889656911899103e-06 2.1730869602756606e-07 0 4.0693304532260938e-06 4.4938188040124169e-07 0 3.3817241779515823e-06 5.8332977344713799e-07 0 3.1889656911899103e-06 2.1730869602756606e-07 0 4.0693304532260938e-06 4.4938188040124169e-07 0 4.4195650149404712e-06 7.6832668649084664e-07 0 4.9529113501014325e-06 7.3074570039970407e-07 0 4.0693304532260938e-06 4.4938188040124169e-07 0 3.3817241779515823e-06 5.8332977344713799e-07 0 4.4195650149404712e-06 7.6832668649084664e-07 0 3.7611110688847384e-06 8.1957946348886675e-07 0 3.3817241779515823e-06 5.8332977344713799e-07 0 4.4195650149404712e-06 7.6832668649084664e-07 0 2.9193287193408594e-06 7.9198458914398649e-07 0 3.3817241779515823e-06 5.8332977344713799e-07 0 2.6173887779329542e-06 5.9752943982610949e-07 0 3.7611110688847384e-06 8.1957946348886675e-07 0 2.9193287193408594e-06 7.9198458914398649e-07 0 3.3817241779515823e-06 5.8332977344713799e-07 0 3.3817241779515823e-06 5.8332977344713799e-07 0 2.4653266989035673e-06 2.6596662575733441e-07 0 3.1889656911899103e-06 2.1730869602756606e-07 0 3.3817241779515823e-06 5.8332977344713799e-07 0 2.6173887779329542e-06 5.9752943982610949e-07 0 2.4653266989035673e-06 2.6596662575733441e-07 0 1.8476532553803602e-06 4.671236782739949e-07 0 2.6173887779329542e-06 5.9752943982610949e-07 0 2.4653266989035673e-06 2.6596662575733441e-07 0 1.8476532553803602e-06 4.671236782739949e-07 0 1.8485869862003161e-06 5.2529105923250067e-08 0 2.4653266989035673e-06 2.6596662575733441e-07 0 1.8485869862003161e-06 5.2529105923250067e-08 0 2.4653266989035673e-06 2.6596662575733441e-07 0 2.6302380624285606e-06 -1.4043439499073365e-07 0 1.5713510528884543e-06 -2.7412916469341713e-07 0 1.8485869862003161e-06 5.2529105923250067e-08 0 2.6302380624285606e-06 -1.4043439499073365e-07 0 1.5713510528884543e-06 -2.7412916469341713e-07 0 1.8166091033777487e-06 -5.2095062025247573e-07 0 2.6302380624285606e-06 -1.4043439499073365e-07 0 3.4381971580585652e-06 -4.289026185210274e-08 0 2.6302380624285606e-06 -1.4043439499073365e-07 0 3.1889656911899103e-06 2.1730869602756606e-07 0 2.4653266989035673e-06 2.6596662575733441e-07 0 2.6302380624285606e-06 -1.4043439499073365e-07 0 3.1889656911899103e-06 2.1730869602756606e-07 0 -2.3019835034729562e-06 -5.1363588348474285e-07 0 -2.2292051872230814e-06 -9.6867786927944402e-07 0 -3.9995253006672378e-06 -6.6536638020465304e-07 0 -2.2292051872230814e-06 -9.6867786927944402e-07 0 -1.0192157183127042e-06 -5.8136904603674832e-07 0 -1.3505829375027279e-06 -1.1383612487336178e-06 0 -2.3019835034729562e-06 -5.1363588348474285e-07 0 -9.8240305643447388e-07 -1.4483251450241126e-07 0 -1.0192157183127042e-06 -5.8136904603674832e-07 0 -2.3019835034729562e-06 -5.1363588348474285e-07 0 -2.2292051872230814e-06 -9.6867786927944402e-07 0 -1.0192157183127042e-06 -5.8136904603674832e-07 0 -9.8240305643447388e-07 -1.4483251450241126e-07 0 -4.4687585363718205e-07 -1.807118344981618e-07 0 -1.0192157183127042e-06 -5.8136904603674832e-07 0 -9.8240305643447388e-07 -1.4483251450241126e-07 0 -7.5977208928803692e-10 3.1040724602455133e-10 0 -4.4687585363718205e-07 -1.807118344981618e-07 0 -7.5977208928803692e-10 3.1040724602455133e-10 0 -4.4687585363718205e-07 -1.807118344981618e-07 0 -8.3210762991225322e-10 -3.2369017809220415e-10 0 -4.4687585363718205e-07 -1.807118344981618e-07 0 -8.3210762991225322e-10 -3.2369017809220415e-10 0 -1.0192157183127042e-06 -5.8136904603674832e-07 0 -8.3210762991225322e-10 -3.2369017809220415e-10 0 -1.0192157183127042e-06 -5.8136904603674832e-07 0 -6.0728561174947677e-07 -7.3716328340330046e-07 0 -1.0192157183127042e-06 -5.8136904603674832e-07 0 -6.0728561174947677e-07 -7.3716328340330046e-07 0 -1.3505829375027279e-06 -1.1383612487336178e-06 0 -8.3210762991225322e-10 -3.2369017809220415e-10 0 -7.3859470530387628e-10 -2.001323516101223e-10 0 -6.0728561174947677e-07 -7.3716328340330046e-07 0 -7.3859470530387628e-10 -2.001323516101223e-10 0 -6.0728561174947677e-07 -7.3716328340330046e-07 0 -3.2049742885162377e-10 -5.4072771453768659e-10 0 -6.0728561174947677e-07 -7.3716328340330046e-07 0 -1.3505829375027279e-06 -1.1383612487336178e-06 0 -5.931970945975334e-07 -1.1329082614745375e-06 0 -1.3505829375027279e-06 -1.1383612487336178e-06 0 -1.2231658116391117e-06 -1.4947263707137811e-06 0 -5.931970945975334e-07 -1.1329082614745375e-06 0 -2.2292051872230814e-06 -9.6867786927944402e-07 0 -1.3505829375027279e-06 -1.1383612487336178e-06 0 -2.0850362358363368e-06 -1.468465995783486e-06 0 -2.2292051872230814e-06 -9.6867786927944402e-07 0 -2.0850362358363368e-06 -1.468465995783486e-06 0 -3.1848797646057502e-06 -1.2757848584702571e-06 0 -2.0850362358363368e-06 -1.468465995783486e-06 0 -1.2231658116391117e-06 -1.4947263707137811e-06 0 -1.3378530143338559e-06 -1.7169334018026571e-06 0 -1.3505829375027279e-06 -1.1383612487336178e-06 0 -2.0850362358363368e-06 -1.468465995783486e-06 0 -1.2231658116391117e-06 -1.4947263707137811e-06 0 -1.2231658116391117e-06 -1.4947263707137811e-06 0 -6.7678602428386376e-07 -1.5599495593195671e-06 0 -1.3378530143338559e-06 -1.7169334018026571e-06 0 -6.7678602428386376e-07 -1.5599495593195671e-06 0 -5.931970945975334e-07 -1.1329082614745375e-06 0 -1.1720534428415491e-07 -1.3074918909106333e-06 0 -1.2231658116391117e-06 -1.4947263707137811e-06 0 -6.7678602428386376e-07 -1.5599495593195671e-06 0 -5.931970945975334e-07 -1.1329082614745375e-06 0 -5.931970945975334e-07 -1.1329082614745375e-06 0 -3.2049742885162377e-10 -5.4072771453768659e-10 0 -1.3800147580409128e-07 -7.3778202812928706e-07 0 -6.0728561174947677e-07 -7.3716328340330046e-07 0 -5.931970945975334e-07 -1.1329082614745375e-06 0 -3.2049742885162377e-10 -5.4072771453768659e-10 0 -3.2049742885162377e-10 -5.4072771453768659e-10 0 -1.3800147580409128e-07 -7.3778202812928706e-07 0 -1.0191718570005427e-10 -3.5308826714464027e-10 0 -5.931970945975334e-07 -1.1329082614745375e-06 0 -1.3800147580409128e-07 -7.3778202812928706e-07 0 -1.1720534428415491e-07 -1.3074918909106333e-06 0 -1.3800147580409128e-07 -7.3778202812928706e-07 0 8.0246300273255402e-08 -7.9135827893544975e-07 0 -1.1720534428415491e-07 -1.3074918909106333e-06 0 -1.3800147580409128e-07 -7.3778202812928706e-07 0 -1.0191718570005427e-10 -3.5308826714464027e-10 0 8.0246300273255402e-08 -7.9135827893544975e-07 0 -1.0191718570005427e-10 -3.5308826714464027e-10 0 1.6908383053682316e-10 -3.8660202093541729e-10 0 8.0246300273255402e-08 -7.9135827893544975e-07 0 3.411793698301902e-07 -7.3096474761481642e-07 0 8.0246300273255402e-08 -7.9135827893544975e-07 0 4.3206895695904744e-07 -1.2355402816171605e-06 0 8.0246300273255402e-08 -7.9135827893544975e-07 0 4.3206895695904744e-07 -1.2355402816171605e-06 0 -1.1720534428415491e-07 -1.3074918909106333e-06 0 -6.7678602428386376e-07 -1.5599495593195671e-06 0 -1.1720534428415491e-07 -1.3074918909106333e-06 0 3.0570795548334291e-09 -1.637901092316854e-06 0 4.3206895695904744e-07 -1.2355402816171605e-06 0 -1.1720534428415491e-07 -1.3074918909106333e-06 0 3.0570795548334291e-09 -1.637901092316854e-06 0 4.3206895695904744e-07 -1.2355402816171605e-06 0 8.2432811432068298e-07 -1.3843880883739217e-06 0 3.0570795548334291e-09 -1.637901092316854e-06 0 8.2432811432068298e-07 -1.3843880883739217e-06 0 3.0570795548334291e-09 -1.637901092316854e-06 0 1.1507411768411646e-06 -1.373763184803381e-06 0 3.0570795548334291e-09 -1.637901092316854e-06 0 1.1507411768411646e-06 -1.373763184803381e-06 0 -5.0987879332580003e-07 -1.6786422864567591e-06 0 2.5949820774689422e-06 -7.6740583039343074e-07 0 1.1507411768411646e-06 -1.373763184803381e-06 0 9.8262965077287977e-07 -1.1560212357791361e-06 0 9.8262965077287977e-07 -1.1560212357791361e-06 0 -5.9327786706547551e-07 -1.338656908654233e-06 0 -3.0299956014991889e-07 -7.1617048918997796e-07 0 9.8262965077287977e-07 -1.1560212357791361e-06 0 -5.9327786706547551e-07 -1.338656908654233e-06 0 -5.0987879332580003e-07 -1.6786422864567591e-06 0 1.1507411768411646e-06 -1.373763184803381e-06 0 9.8262965077287977e-07 -1.1560212357791361e-06 0 -5.0987879332580003e-07 -1.6786422864567591e-06 0 -5.9327786706547551e-07 -1.338656908654233e-06 0 -2.2572562865093925e-06 -1.5851175038759976e-06 0 -5.0987879332580003e-07 -1.6786422864567591e-06 0 -5.9327786706547551e-07 -1.338656908654233e-06 0 -2.2891722735015284e-06 -1.0730995210572878e-06 0 -3.0299956014991889e-07 -7.1617048918997796e-07 0 -5.9327786706547551e-07 -1.338656908654233e-06 0 -2.2891722735015284e-06 -1.0730995210572878e-06 0 -2.2572562865093925e-06 -1.5851175038759976e-06 0 -2.2572562865093925e-06 -1.5851175038759976e-06 0 -5.0987879332580003e-07 -1.6786422864567591e-06 0 -1.3378530143338559e-06 -1.7169334018026571e-06 0 -2.2572562865093925e-06 -1.5851175038759976e-06 0 -1.3378530143338559e-06 -1.7169334018026571e-06 0 -2.6027111584362928e-06 -1.5644692406005051e-06 0 3.0570795548334291e-09 -1.637901092316854e-06 0 -5.0987879332580003e-07 -1.6786422864567591e-06 0 -1.3378530143338559e-06 -1.7169334018026571e-06 0 -6.7678602428386376e-07 -1.5599495593195671e-06 0 3.0570795548334291e-09 -1.637901092316854e-06 0 -1.3378530143338559e-06 -1.7169334018026571e-06 0 -2.0850362358363368e-06 -1.468465995783486e-06 0 -1.3378530143338559e-06 -1.7169334018026571e-06 0 -2.6027111584362928e-06 -1.5644692406005051e-06 0 -2.0850362358363368e-06 -1.468465995783486e-06 0 -2.6027111584362928e-06 -1.5644692406005051e-06 0 -3.1848797646057502e-06 -1.2757848584702571e-06 0 -2.6027111584362928e-06 -1.5644692406005051e-06 0 -4.0202218083646811e-06 -1.2745920519010585e-06 0 -3.1848797646057502e-06 -1.2757848584702571e-06 0 -2.2572562865093925e-06 -1.5851175038759976e-06 0 -2.6027111584362928e-06 -1.5644692406005051e-06 0 -4.0202218083646811e-06 -1.2745920519010585e-06 0 -2.2572562865093925e-06 -1.5851175038759976e-06 0 -4.740314829058051e-06 -8.1380000385983538e-07 0 -4.0202218083646811e-06 -1.2745920519010585e-06 0 -2.2891722735015284e-06 -1.0730995210572878e-06 0 -2.2572562865093925e-06 -1.5851175038759976e-06 0 -4.740314829058051e-06 -8.1380000385983538e-07 0 -4.740314829058051e-06 -8.1380000385983538e-07 0 -4.0202218083646811e-06 -1.2745920519010585e-06 0 -6.2151059519816215e-06 -5.7706079139343867e-07 0 -4.0202218083646811e-06 -1.2745920519010585e-06 0 -6.2151059519816215e-06 -5.7706079139343867e-07 0 -4.7806250337449952e-06 -9.5189602994437963e-07 0 -4.740314829058051e-06 -8.1380000385983538e-07 0 -6.2151059519816215e-06 -5.7706079139343867e-07 0 -7.8708782492737624e-06 4.0319062284316945e-07 0 -6.2151059519816215e-06 -5.7706079139343867e-07 0 -6.0771359976428394e-06 -3.4361676299342836e-07 0 -8.5660107518189135e-06 5.0562703931412557e-07 0 -6.2151059519816215e-06 -5.7706079139343867e-07 0 -6.0771359976428394e-06 -3.4361676299342836e-07 0 -4.7806250337449952e-06 -9.5189602994437963e-07 0 -6.0771359976428394e-06 -3.4361676299342836e-07 0 -4.7806250337449952e-06 -9.5189602994437963e-07 0 -3.9995253006672378e-06 -6.6536638020465304e-07 0 -4.0202218083646811e-06 -1.2745920519010585e-06 0 -4.7806250337449952e-06 -9.5189602994437963e-07 0 -3.1848797646057502e-06 -1.2757848584702571e-06 0 -4.7806250337449952e-06 -9.5189602994437963e-07 0 -3.1848797646057502e-06 -1.2757848584702571e-06 0 -3.9995253006672378e-06 -6.6536638020465304e-07 0 -2.2292051872230814e-06 -9.6867786927944402e-07 0 -3.1848797646057502e-06 -1.2757848584702571e-06 0 -3.9995253006672378e-06 -6.6536638020465304e-07 0 -1.4798652384700199e-05 4.7886927421506377e-06 0 -1.2976443269752712e-05 4.769889246066642e-06 0 -1.0349561012192646e-05 2.4345421444226493e-06 0 -1.4798652384700199e-05 4.7886927421506377e-06 0 -1.2976443269752712e-05 4.769889246066642e-06 0 -1.8671918523866275e-05 8.5827280229314756e-06 0 -1.2976443269752712e-05 4.769889246066642e-06 0 -1.0349561012192646e-05 2.4345421444226493e-06 0 -8.9524641130101966e-06 3.6394444756416193e-06 0 -1.2976443269752712e-05 4.769889246066642e-06 0 -8.9524641130101966e-06 3.6394444756416193e-06 0 -1.29473739543136e-05 7.085593202396254e-06 0 -1.4798652384700199e-05 4.7886927421506377e-06 0 -1.0349561012192646e-05 2.4345421444226493e-06 0 -1.1433372064552655e-05 2.1334418963681562e-06 0 -1.1433372064552655e-05 2.1334418963681562e-06 0 -8.5660107518189135e-06 5.0562703931412557e-07 0 -7.8708782492737624e-06 4.0319062284316945e-07 0 -6.2151059519816215e-06 -5.7706079139343867e-07 0 -8.5660107518189135e-06 5.0562703931412557e-07 0 -7.8708782492737624e-06 4.0319062284316945e-07 0 -1.0349561012192646e-05 2.4345421444226493e-06 0 -1.1433372064552655e-05 2.1334418963681562e-06 0 -7.8708782492737624e-06 4.0319062284316945e-07 0 -1.0349561012192646e-05 2.4345421444226493e-06 0 -7.8708782492737624e-06 4.0319062284316945e-07 0 -5.9441324840601665e-06 8.860566155907241e-07 0 -4.740314829058051e-06 -8.1380000385983538e-07 0 -3.8090011678402821e-06 -3.4193314420027826e-07 0 -5.9441324840601665e-06 8.860566155907241e-07 0 -4.740314829058051e-06 -8.1380000385983538e-07 0 -7.8708782492737624e-06 4.0319062284316945e-07 0 -5.9441324840601665e-06 8.860566155907241e-07 0 -2.2891722735015284e-06 -1.0730995210572878e-06 0 -4.740314829058051e-06 -8.1380000385983538e-07 0 -3.8090011678402821e-06 -3.4193314420027826e-07 0 -5.9441324840601665e-06 8.860566155907241e-07 0 -8.9524641130101966e-06 3.6394444756416193e-06 0 -5.5927360709861806e-06 3.2223802413218717e-06 0 -1.0349561012192646e-05 2.4345421444226493e-06 0 -5.9441324840601665e-06 8.860566155907241e-07 0 -8.9524641130101966e-06 3.6394444756416193e-06 0 -8.9524641130101966e-06 3.6394444756416193e-06 0 -5.5927360709861806e-06 3.2223802413218717e-06 0 -8.1579084053302668e-06 6.3502257078763089e-06 0 -5.5927360709861806e-06 3.2223802413218717e-06 0 -2.3327181913679665e-06 1.5462123308007985e-06 0 -2.5308847367215449e-06 5.1040371161153559e-06 0 -2.3327181913679665e-06 1.5462123308007985e-06 0 3.2745771963636937e-07 2.4239651301900042e-06 0 -2.5308847367215449e-06 5.1040371161153559e-06 0 -2.3327181913679665e-06 1.5462123308007985e-06 0 1.8748212965740332e-08 4.6695098213800321e-07 0 3.2745771963636937e-07 2.4239651301900042e-06 0 -5.9441324840601665e-06 8.860566155907241e-07 0 -5.5927360709861806e-06 3.2223802413218717e-06 0 -2.3327181913679665e-06 1.5462123308007985e-06 0 -5.9441324840601665e-06 8.860566155907241e-07 0 -2.3327181913679665e-06 1.5462123308007985e-06 0 -2.1747465676082892e-06 3.2046603958532928e-08 0 -3.8090011678402821e-06 -3.4193314420027826e-07 0 -5.9441324840601665e-06 8.860566155907241e-07 0 -2.1747465676082892e-06 3.2046603958532928e-08 0 -2.2891722735015284e-06 -1.0730995210572878e-06 0 -3.8090011678402821e-06 -3.4193314420027826e-07 0 -2.1747465676082892e-06 3.2046603958532928e-08 0 -2.2891722735015284e-06 -1.0730995210572878e-06 0 -2.1747465676082892e-06 3.2046603958532928e-08 0 -3.0299956014991889e-07 -7.1617048918997796e-07 0 -2.1747465676082892e-06 3.2046603958532928e-08 0 -3.0299956014991889e-07 -7.1617048918997796e-07 0 1.8748212965740332e-08 4.6695098213800321e-07 0 -2.3327181913679665e-06 1.5462123308007985e-06 0 -2.1747465676082892e-06 3.2046603958532928e-08 0 1.8748212965740332e-08 4.6695098213800321e-07 0 -3.0299956014991889e-07 -7.1617048918997796e-07 0 1.8748212965740332e-08 4.6695098213800321e-07 0 1.6237615974227695e-06 -2.239792032122804e-07 0 1.8748212965740332e-08 4.6695098213800321e-07 0 1.6237615974227695e-06 -2.239792032122804e-07 0 2.3911382071259848e-06 1.2686209245141425e-06 0 9.8262965077287977e-07 -1.1560212357791361e-06 0 -3.0299956014991889e-07 -7.1617048918997796e-07 0 1.6237615974227695e-06 -2.239792032122804e-07 0 1.6237615974227695e-06 -2.239792032122804e-07 0 2.6023299160955162e-06 -4.3827013545512979e-07 0 3.5442371941864649e-06 4.3451847778414486e-07 0 9.8262965077287977e-07 -1.1560212357791361e-06 0 1.6237615974227695e-06 -2.239792032122804e-07 0 2.6023299160955162e-06 -4.3827013545512979e-07 0 1.6237615974227695e-06 -2.239792032122804e-07 0 2.3911382071259848e-06 1.2686209245141425e-06 0 3.5442371941864649e-06 4.3451847778414486e-07 0 2.3911382071259848e-06 1.2686209245141425e-06 0 3.5442371941864649e-06 4.3451847778414486e-07 0 5.1066022478263024e-06 2.1431377566195631e-06 0 1.8748212965740332e-08 4.6695098213800321e-07 0 2.3911382071259848e-06 1.2686209245141425e-06 0 3.2745771963636937e-07 2.4239651301900042e-06 0 2.3911382071259848e-06 1.2686209245141425e-06 0 3.2745771963636937e-07 2.4239651301900042e-06 0 2.9263259640717251e-06 3.7520179821548648e-06 0 2.3911382071259848e-06 1.2686209245141425e-06 0 2.9263259640717251e-06 3.7520179821548648e-06 0 5.1066022478263024e-06 2.1431377566195631e-06 0 2.9263259640717251e-06 3.7520179821548648e-06 0 4.9041741269978217e-06 6.2361004966756447e-06 0 6.8219598553546559e-06 4.2924578759258279e-06 0 2.9263259640717251e-06 3.7520179821548648e-06 0 5.1066022478263024e-06 2.1431377566195631e-06 0 6.8219598553546559e-06 4.2924578759258279e-06 0 2.9263259640717251e-06 3.7520179821548648e-06 0 1.1476512029856476e-06 7.1123796734787754e-06 0 -2.5308847367215449e-06 5.1040371161153559e-06 0 3.2745771963636937e-07 2.4239651301900042e-06 0 2.9263259640717251e-06 3.7520179821548648e-06 0 -2.5308847367215449e-06 5.1040371161153559e-06 0 2.9263259640717251e-06 3.7520179821548648e-06 0 1.1476512029856476e-06 7.1123796734787754e-06 0 4.9041741269978217e-06 6.2361004966756447e-06 0 4.9041741269978217e-06 6.2361004966756447e-06 0 3.3683765000744141e-06 1.0821462407865755e-05 0 8.510036772625914e-06 7.4944611204526921e-06 0 3.3683765000744141e-06 1.0821462407865755e-05 0 8.510036772625914e-06 7.4944611204526921e-06 0 7.5045270147331069e-06 1.5801529957099675e-05 0 3.3683765000744141e-06 1.0821462407865755e-05 0 2.9691676472304975e-06 1.7451071907161181e-05 0 7.5045270147331069e-06 1.5801529957099675e-05 0 3.3683765000744141e-06 1.0821462407865755e-05 0 -2.0647043134900071e-06 1.8535247663533688e-05 0 2.9691676472304975e-06 1.7451071907161181e-05 0 1.1476512029856476e-06 7.1123796734787754e-06 0 3.3683765000744141e-06 1.0821462407865755e-05 0 -3.5418687720922128e-06 1.1448537155599234e-05 0 1.1476512029856476e-06 7.1123796734787754e-06 0 4.9041741269978217e-06 6.2361004966756447e-06 0 3.3683765000744141e-06 1.0821462407865755e-05 0 3.3683765000744141e-06 1.0821462407865755e-05 0 -3.5418687720922128e-06 1.1448537155599234e-05 0 -2.0647043134900071e-06 1.8535247663533688e-05 0 -3.5418687720922128e-06 1.1448537155599234e-05 0 -9.0357488497441204e-06 1.90222402406061e-05 0 -2.0647043134900071e-06 1.8535247663533688e-05 0 -3.5418687720922128e-06 1.1448537155599234e-05 0 -7.6938222409792295e-06 1.0257753256257917e-05 0 -9.0357488497441204e-06 1.90222402406061e-05 0 -3.5418687720922128e-06 1.1448537155599234e-05 0 -2.5308847367215449e-06 5.1040371161153559e-06 0 -7.6938222409792295e-06 1.0257753256257917e-05 0 -2.5308847367215449e-06 5.1040371161153559e-06 0 -8.1579084053302668e-06 6.3502257078763089e-06 0 -7.6938222409792295e-06 1.0257753256257917e-05 0 1.1476512029856476e-06 7.1123796734787754e-06 0 -3.5418687720922128e-06 1.1448537155599234e-05 0 -2.5308847367215449e-06 5.1040371161153559e-06 0 -5.5927360709861806e-06 3.2223802413218717e-06 0 -2.5308847367215449e-06 5.1040371161153559e-06 0 -8.1579084053302668e-06 6.3502257078763089e-06 0 -8.9524641130101966e-06 3.6394444756416193e-06 0 -8.1579084053302668e-06 6.3502257078763089e-06 0 -1.29473739543136e-05 7.085593202396254e-06 0 -8.1579084053302668e-06 6.3502257078763089e-06 0 -1.2249268302291545e-05 1.0709122312055543e-05 0 -1.29473739543136e-05 7.085593202396254e-06 0 -8.1579084053302668e-06 6.3502257078763089e-06 0 -1.2249268302291545e-05 1.0709122312055543e-05 0 -7.6938222409792295e-06 1.0257753256257917e-05 0 -1.2249268302291545e-05 1.0709122312055543e-05 0 -7.6938222409792295e-06 1.0257753256257917e-05 0 -1.3058168707840864e-05 1.5568076358416014e-05 0 -7.6938222409792295e-06 1.0257753256257917e-05 0 -1.3058168707840864e-05 1.5568076358416014e-05 0 -9.0357488497441204e-06 1.90222402406061e-05 0 -1.3058168707840864e-05 1.5568076358416014e-05 0 -1.8292504216064565e-05 1.5933399650936935e-05 0 -1.8634864791360665e-05 2.3634964173222579e-05 0 -1.3058168707840864e-05 1.5568076358416014e-05 0 -1.8634864791360665e-05 2.3634964173222579e-05 0 -9.0357488497441204e-06 1.90222402406061e-05 0 -1.2249268302291545e-05 1.0709122312055543e-05 0 -1.3058168707840864e-05 1.5568076358416014e-05 0 -1.8292504216064565e-05 1.5933399650936935e-05 0 -1.2249268302291545e-05 1.0709122312055543e-05 0 -1.8292504216064565e-05 1.5933399650936935e-05 0 -1.7017152408290788e-05 1.0956790371056009e-05 0 -1.8292504216064565e-05 1.5933399650936935e-05 0 -2.6800065331552476e-05 2.139215538406224e-05 0 -1.8634864791360665e-05 2.3634964173222579e-05 0 -1.8292504216064565e-05 1.5933399650936935e-05 0 -2.2813918366616339e-05 1.4135442074357477e-05 0 -2.6800065331552476e-05 2.139215538406224e-05 0 -1.8292504216064565e-05 1.5933399650936935e-05 0 -2.2813918366616339e-05 1.4135442074357477e-05 0 -1.7017152408290788e-05 1.0956790371056009e-05 0 -2.2813918366616339e-05 1.4135442074357477e-05 0 -1.7017152408290788e-05 1.0956790371056009e-05 0 -1.8671918523866275e-05 8.5827280229314756e-06 0 -1.7017152408290788e-05 1.0956790371056009e-05 0 -1.29473739543136e-05 7.085593202396254e-06 0 -1.8671918523866275e-05 8.5827280229314756e-06 0 -1.2249268302291545e-05 1.0709122312055543e-05 0 -1.7017152408290788e-05 1.0956790371056009e-05 0 -1.29473739543136e-05 7.085593202396254e-06 0 -1.2976443269752712e-05 4.769889246066642e-06 0 -1.29473739543136e-05 7.085593202396254e-06 0 -1.8671918523866275e-05 8.5827280229314756e-06 0 6.0904336580270772e-06 1.3895795531380976e-06 0 6.1051642613893762e-06 1.3604034451854416e-06 0 6.8474471395364055e-06 1.8769837907618293e-06 0 6.1051642613893762e-06 1.3604034451854416e-06 0 6.8474471395364055e-06 1.8769837907618293e-06 0 7.2626187060727318e-06 2.2098784054024522e-06 0 6.8474471395364055e-06 1.8769837907618293e-06 0 7.2626187060727318e-06 2.2098784054024522e-06 0 7.9418447592466299e-06 2.7074594757490973e-06 0 6.0904336580270772e-06 1.3895795531380976e-06 0 6.8474471395364055e-06 1.8769837907618293e-06 0 6.4671225533988317e-06 1.4386897782975892e-06 0 6.4671225533988317e-06 1.4386897782975892e-06 0 5.4646433311896074e-06 1.0126552264678416e-06 0 5.6913219603366881e-06 6.0979264795814713e-07 0 6.0904336580270772e-06 1.3895795531380976e-06 0 6.4671225533988317e-06 1.4386897782975892e-06 0 5.4646433311896074e-06 1.0126552264678416e-06 0 4.9876725641594215e-06 4.6524631815064565e-07 0 5.4646433311896074e-06 1.0126552264678416e-06 0 5.6913219603366881e-06 6.0979264795814713e-07 0 6.0904336580270772e-06 1.3895795531380976e-06 0 5.4646433311896074e-06 1.0126552264678416e-06 0 5.3003439369449762e-06 1.0442873337604274e-06 0 5.4646433311896074e-06 1.0126552264678416e-06 0 4.5621370218973199e-06 8.6249770511448004e-07 0 5.3003439369449762e-06 1.0442873337604274e-06 0 4.4747720404834222e-06 6.5876954430789066e-07 0 5.4646433311896074e-06 1.0126552264678416e-06 0 4.5621370218973199e-06 8.6249770511448004e-07 0 3.7611110688847384e-06 8.1957946348886675e-07 0 4.5621370218973199e-06 8.6249770511448004e-07 0 4.4195650149404712e-06 7.6832668649084664e-07 0 4.5621370218973199e-06 8.6249770511448004e-07 0 4.4195650149404712e-06 7.6832668649084664e-07 0 5.3003439369449762e-06 1.0442873337604274e-06 0 4.4195650149404712e-06 7.6832668649084664e-07 0 5.3003439369449762e-06 1.0442873337604274e-06 0 4.9529113501014325e-06 7.3074570039970407e-07 0 6.0904336580270772e-06 1.3895795531380976e-06 0 6.1051642613893762e-06 1.3604034451854416e-06 0 5.3003439369449762e-06 1.0442873337604274e-06 0 6.1051642613893762e-06 1.3604034451854416e-06 0 5.3003439369449762e-06 1.0442873337604274e-06 0 4.9529113501014325e-06 7.3074570039970407e-07 0 6.1051642613893762e-06 1.3604034451854416e-06 0 4.9529113501014325e-06 7.3074570039970407e-07 0 5.0919428957865402e-06 6.153181759263592e-07 0 4.4426994768839518e-06 3.407028018067529e-07 0 4.9529113501014325e-06 7.3074570039970407e-07 0 5.0919428957865402e-06 6.153181759263592e-07 0 3.5469192889904085e-06 -2.9740473648128833e-07 0 5.0919428957865402e-06 6.153181759263592e-07 0 3.9138692484507471e-06 -6.2799563192143592e-09 0 5.0919428957865402e-06 6.153181759263592e-07 0 5.2520776062534445e-06 1.0412682394545382e-06 0 6.1895963648474937e-06 1.4476583889720255e-06 0 5.0919428957865402e-06 6.153181759263592e-07 0 3.9138692484507471e-06 -6.2799563192143592e-09 0 5.2520776062534445e-06 1.0412682394545382e-06 0 6.1051642613893762e-06 1.3604034451854416e-06 0 5.0919428957865402e-06 6.153181759263592e-07 0 6.1895963648474937e-06 1.4476583889720255e-06 0 2.6023299160955162e-06 -4.3827013545512979e-07 0 3.9138692484507471e-06 -6.2799563192143592e-09 0 3.5442371941864649e-06 4.3451847778414486e-07 0 3.9138692484507471e-06 -6.2799563192143592e-09 0 3.5442371941864649e-06 4.3451847778414486e-07 0 5.2520776062534445e-06 1.0412682394545382e-06 0 3.5442371941864649e-06 4.3451847778414486e-07 0 5.2520776062534445e-06 1.0412682394545382e-06 0 5.1066022478263024e-06 2.1431377566195631e-06 0 5.2520776062534445e-06 1.0412682394545382e-06 0 7.1474678324043091e-06 2.5484835840291299e-06 0 5.1066022478263024e-06 2.1431377566195631e-06 0 7.1474678324043091e-06 2.5484835840291299e-06 0 5.1066022478263024e-06 2.1431377566195631e-06 0 6.8219598553546559e-06 4.2924578759258279e-06 0 6.1051642613893762e-06 1.3604034451854416e-06 0 6.1895963648474937e-06 1.4476583889720255e-06 0 7.2626187060727318e-06 2.2098784054024522e-06 0 5.2520776062534445e-06 1.0412682394545382e-06 0 7.1474678324043091e-06 2.5484835840291299e-06 0 6.1895963648474937e-06 1.4476583889720255e-06 0 7.1474678324043091e-06 2.5484835840291299e-06 0 6.1895963648474937e-06 1.4476583889720255e-06 0 7.2626187060727318e-06 2.2098784054024522e-06 0 7.1474678324043091e-06 2.5484835840291299e-06 0 7.2626187060727318e-06 2.2098784054024522e-06 0 8.4415024050013202e-06 3.3699775240197711e-06 0 7.2626187060727318e-06 2.2098784054024522e-06 0 8.4415024050013202e-06 3.3699775240197711e-06 0 7.9418447592466299e-06 2.7074594757490973e-06 0 7.1474678324043091e-06 2.5484835840291299e-06 0 8.4415024050013202e-06 3.3699775240197711e-06 0 9.8577838297707826e-06 5.0974860849067537e-06 0 8.4415024050013202e-06 3.3699775240197711e-06 0 9.8577838297707826e-06 5.0974860849067537e-06 0 9.3311783255087896e-06 3.8509361836213261e-06 0 9.3311783255087896e-06 3.8509361836213261e-06 0 8.1033159224080716e-06 2.480444472174687e-06 0 7.9418447592466299e-06 2.7074594757490973e-06 0 8.4415024050013202e-06 3.3699775240197711e-06 0 9.3311783255087896e-06 3.8509361836213261e-06 0 7.9418447592466299e-06 2.7074594757490973e-06 0 7.1474678324043091e-06 2.5484835840291299e-06 0 6.8219598553546559e-06 4.2924578759258279e-06 0 9.8577838297707826e-06 5.0974860849067537e-06 0 6.8219598553546559e-06 4.2924578759258279e-06 0 9.8577838297707826e-06 5.0974860849067537e-06 0 8.510036772625914e-06 7.4944611204526921e-06 0 4.9041741269978217e-06 6.2361004966756447e-06 0 6.8219598553546559e-06 4.2924578759258279e-06 0 8.510036772625914e-06 7.4944611204526921e-06 0 9.8577838297707826e-06 5.0974860849067537e-06 0 8.510036772625914e-06 7.4944611204526921e-06 0 1.4340249150394189e-05 8.6407285682233096e-06 0 8.510036772625914e-06 7.4944611204526921e-06 0 1.4340249150394189e-05 8.6407285682233096e-06 0 7.5045270147331069e-06 1.5801529957099675e-05 0 9.8577838297707826e-06 5.0974860849067537e-06 0 1.0551223418807646e-05 5.1959276728820053e-06 0 1.4340249150394189e-05 8.6407285682233096e-06 0 9.3311783255087896e-06 3.8509361836213261e-06 0 1.0551223418807646e-05 5.1959276728820053e-06 0 8.5299023349768226e-06 2.4545832768425895e-06 0 9.3311783255087896e-06 3.8509361836213261e-06 0 8.5299023349768226e-06 2.4545832768425895e-06 0 8.1033159224080716e-06 2.480444472174687e-06 0 9.8577838297707826e-06 5.0974860849067537e-06 0 9.3311783255087896e-06 3.8509361836213261e-06 0 1.0551223418807646e-05 5.1959276728820053e-06 0 1.0551223418807646e-05 5.1959276728820053e-06 0 8.5299023349768226e-06 2.4545832768425895e-06 0 8.9248996417509232e-06 7.1510163602834664e-07 0 8.5299023349768226e-06 2.4545832768425895e-06 0 7.7484686059433532e-06 -1.3532784910461966e-06 0 8.9248996417509232e-06 7.1510163602834664e-07 0 8.5299023349768226e-06 2.4545832768425895e-06 0 7.1727639400990167e-06 7.3953151972696641e-07 0 7.7484686059433532e-06 -1.3532784910461966e-06 0 8.5299023349768226e-06 2.4545832768425895e-06 0 7.1727639400990167e-06 7.3953151972696641e-07 0 8.1033159224080716e-06 2.480444472174687e-06 0 8.1033159224080716e-06 2.480444472174687e-06 0 7.2841431709277602e-06 1.9641951004567365e-06 0 7.9418447592466299e-06 2.7074594757490973e-06 0 7.1727639400990167e-06 7.3953151972696641e-07 0 8.1033159224080716e-06 2.480444472174687e-06 0 7.2841431709277602e-06 1.9641951004567365e-06 0 7.1727639400990167e-06 7.3953151972696641e-07 0 7.2841431709277602e-06 1.9641951004567365e-06 0 6.4431672430742207e-06 6.8680788071901718e-07 0 6.4671225533988317e-06 1.4386897782975892e-06 0 7.2841431709277602e-06 1.9641951004567365e-06 0 6.4431672430742207e-06 6.8680788071901718e-07 0 6.8474471395364055e-06 1.8769837907618293e-06 0 6.4671225533988317e-06 1.4386897782975892e-06 0 7.2841431709277602e-06 1.9641951004567365e-06 0 6.8474471395364055e-06 1.8769837907618293e-06 0 7.2841431709277602e-06 1.9641951004567365e-06 0 7.9418447592466299e-06 2.7074594757490973e-06 0 6.4671225533988317e-06 1.4386897782975892e-06 0 5.6913219603366881e-06 6.0979264795814713e-07 0 6.4431672430742207e-06 6.8680788071901718e-07 0 5.4536541538984936e-06 -6.2835696650327601e-07 0 5.6913219603366881e-06 6.0979264795814713e-07 0 6.4431672430742207e-06 6.8680788071901718e-07 0 7.1727639400990167e-06 7.3953151972696641e-07 0 6.0801395426283512e-06 -1.1017731773691617e-06 0 6.7257230146014388e-06 -3.3918730899584315e-06 0 5.4536541538984936e-06 -6.2835696650327601e-07 0 5.3698017583070059e-06 -2.4334507272521157e-06 0 6.0801395426283512e-06 -1.1017731773691617e-06 0 5.4536541538984936e-06 -6.2835696650327601e-07 0 6.4431672430742207e-06 6.8680788071901718e-07 0 6.0801395426283512e-06 -1.1017731773691617e-06 0 7.1727639400990167e-06 7.3953151972696641e-07 0 6.4431672430742207e-06 6.8680788071901718e-07 0 6.0801395426283512e-06 -1.1017731773691617e-06 0 5.3698017583070059e-06 -2.4334507272521157e-06 0 6.0801395426283512e-06 -1.1017731773691617e-06 0 5.862542146585506e-06 -4.0434366593493505e-06 0 6.0801395426283512e-06 -1.1017731773691617e-06 0 6.7257230146014388e-06 -3.3918730899584315e-06 0 5.862542146585506e-06 -4.0434366593493505e-06 0 6.7257230146014388e-06 -3.3918730899584315e-06 0 5.862542146585506e-06 -4.0434366593493505e-06 0 7.0181024728561837e-06 -6.0861094786985387e-06 0 6.7257230146014388e-06 -3.3918730899584315e-06 0 7.0181024728561837e-06 -6.0861094786985387e-06 0 7.9988251480384338e-06 -5.9957588094821576e-06 0 5.862542146585506e-06 -4.0434366593493505e-06 0 6.0930488040396618e-06 -6.2863599996529497e-06 0 7.0181024728561837e-06 -6.0861094786985387e-06 0 6.0930488040396618e-06 -6.2863599996529497e-06 0 7.0181024728561837e-06 -6.0861094786985387e-06 0 7.7056183928102897e-06 -8.7642774465455026e-06 0 7.0181024728561837e-06 -6.0861094786985387e-06 0 7.7056183928102897e-06 -8.7642774465455026e-06 0 7.9988251480384338e-06 -5.9957588094821576e-06 0 6.0930488040396618e-06 -6.2863599996529497e-06 0 7.7056183928102897e-06 -8.7642774465455026e-06 0 6.2643012239795802e-06 -8.2579561021635364e-06 0 1.049594210308965e-05 -8.2741499771216242e-06 0 1.1625087551716944e-05 -1.0877130310151749e-05 0 9.8168014355626848e-06 -9.9225350701533788e-06 0 7.9988251480384338e-06 -5.9957588094821576e-06 0 1.049594210308965e-05 -8.2741499771216242e-06 0 9.8168014355626848e-06 -9.9225350701533788e-06 0 7.7056183928102897e-06 -8.7642774465455026e-06 0 7.9988251480384338e-06 -5.9957588094821576e-06 0 9.8168014355626848e-06 -9.9225350701533788e-06 0 7.9988251480384338e-06 -5.9957588094821576e-06 0 9.1251945975241466e-06 -3.6017486860742195e-06 0 1.049594210308965e-05 -8.2741499771216242e-06 0 7.1727639400990167e-06 7.3953151972696641e-07 0 6.7257230146014388e-06 -3.3918730899584315e-06 0 7.7484686059433532e-06 -1.3532784910461966e-06 0 7.9988251480384338e-06 -5.9957588094821576e-06 0 7.7484686059433532e-06 -1.3532784910461966e-06 0 9.1251945975241466e-06 -3.6017486860742195e-06 0 6.7257230146014388e-06 -3.3918730899584315e-06 0 7.9988251480384338e-06 -5.9957588094821576e-06 0 7.7484686059433532e-06 -1.3532784910461966e-06 0 7.7484686059433532e-06 -1.3532784910461966e-06 0 8.9248996417509232e-06 7.1510163602834664e-07 0 9.1251945975241466e-06 -3.6017486860742195e-06 0 1.0551223418807646e-05 5.1959276728820053e-06 0 8.9248996417509232e-06 7.1510163602834664e-07 0 1.0561337518727505e-05 4.1853609855509099e-07 0 8.9248996417509232e-06 7.1510163602834664e-07 0 1.0561337518727505e-05 4.1853609855509099e-07 0 9.1251945975241466e-06 -3.6017486860742195e-06 0 1.0551223418807646e-05 5.1959276728820053e-06 0 1.0561337518727505e-05 4.1853609855509099e-07 0 1.4340249150394189e-05 8.6407285682233096e-06 0 1.0561337518727505e-05 4.1853609855509099e-07 0 1.552861889396592e-05 -3.7904353392625748e-06 0 1.2197869285091658e-05 -6.6417934757242392e-06 0 1.0561337518727505e-05 4.1853609855509099e-07 0 9.1251945975241466e-06 -3.6017486860742195e-06 0 1.2197869285091658e-05 -6.6417934757242392e-06 0 1.4340249150394189e-05 8.6407285682233096e-06 0 1.1100520114992361e-05 2.77842363859575e-05 0 7.5045270147331069e-06 1.5801529957099675e-05 0 1.0561337518727505e-05 4.1853609855509099e-07 0 1.4340249150394189e-05 8.6407285682233096e-06 0 1.552861889396592e-05 -3.7904353392625748e-06 0 6.0174284808159419e-06 6.0307031628830462e-06 0 2.0932882838155227e-05 1.3451239378828449e-05 0 1.4340249150394189e-05 8.6407285682233096e-06 0 2.0769389108516357e-05 2.7154256578070562e-05 0 1.1100520114992361e-05 2.77842363859575e-05 0 1.1100520114992361e-05 2.77842363859575e-05 0 2.3713889657791838e-05 4.0255804401772338e-05 0 1.0352149713493727e-05 3.8669544569699873e-05 0 2.0932882838155227e-05 1.3451239378828449e-05 0 1.9040131367732523e-05 1.5303833441946007e-05 0 1.552861889396592e-05 -3.7904353392625748e-06 0 1.5309174306809948e-05 -8.408899821892983e-06 0 1.2197869285091658e-05 -6.6417934757242392e-06 0 2.0769389108516357e-05 2.7154256578070562e-05 0 1.1100520114992361e-05 2.77842363859575e-05 0 2.3713889657791838e-05 4.0255804401772338e-05 0 1.9040131367732523e-05 1.5303833441946007e-05 0 2.0805429862302636e-05 2.0913872844434115e-05 0 1.5309174306809948e-05 -8.408899821892983e-06 0 1.3300051705608528e-05 -1.0253671768764854e-05 0 1.5138776695896834e-05 -1.0965776409192069e-05 0 2.3713889657791838e-05 4.0255804401772338e-05 0 1.7515951413438119e-05 4.7947776720310065e-05 0 1.0352149713493727e-05 3.8669544569699873e-05 0 9.1251945975241466e-06 -3.6017486860742195e-06 0 1.2197869285091658e-05 -6.6417934757242392e-06 0 1.049594210308965e-05 -8.2741499771216242e-06 0 1.5309174306809948e-05 -8.408899821892983e-06 0 1.2197869285091658e-05 -6.6417934757242392e-06 0 1.3300051705608528e-05 -1.0253671768764854e-05 0 1.2197869285091658e-05 -6.6417934757242392e-06 0 1.3300051705608528e-05 -1.0253671768764854e-05 0 1.049594210308965e-05 -8.2741499771216242e-06 0 1.3300051705608528e-05 -1.0253671768764854e-05 0 1.049594210308965e-05 -8.2741499771216242e-06 0 1.1625087551716944e-05 -1.0877130310151749e-05 0 1.3300051705608528e-05 -1.0253671768764854e-05 0 1.1625087551716944e-05 -1.0877130310151749e-05 0 1.3476087796585444e-05 -1.2537304519792119e-05 0 1.3300051705608528e-05 -1.0253671768764854e-05 0 1.3476087796585444e-05 -1.2537304519792119e-05 0 1.5138776695896834e-05 -1.0965776409192069e-05 0 1.3476087796585444e-05 -1.2537304519792119e-05 0 1.5138776695896834e-05 -1.0965776409192069e-05 0 1.5331598735028593e-05 -1.2579327143131963e-05 0 1.1625087551716944e-05 -1.0877130310151749e-05 0 1.3476087796585444e-05 -1.2537304519792119e-05 0 1.1542944212457049e-05 -1.2283321556029908e-05 0 1.7515951413438119e-05 4.7947776720310065e-05 0 1.9200646000621647e-05 5.5667367482925242e-05 0 9.720023998635778e-06 5.1236629124015113e-05 0 1.7515951413438119e-05 4.7947776720310065e-05 0 2.5926543362187603e-05 5.1997075302719413e-05 0 1.9200646000621647e-05 5.5667367482925242e-05 0 2.3713889657791838e-05 4.0255804401772338e-05 0 1.7515951413438119e-05 4.7947776720310065e-05 0 2.5926543362187603e-05 5.1997075302719413e-05 0 2.0805429862302636e-05 2.0913872844434115e-05 0 2.1528785130176535e-05 2.5471227716757706e-05 0 2.5926543362187603e-05 5.1997075302719413e-05 0 1.9200646000621647e-05 5.5667367482925242e-05 0 2.7706540144507269e-05 6.3839064727106646e-05 0 1.9200646000621647e-05 5.5667367482925242e-05 0 2.7706540144507269e-05 6.3839064727106646e-05 0 1.5368317988726587e-05 6.2188394021195278e-05 0 2.7706540144507269e-05 6.3839064727106646e-05 0 1.9300036724040026e-05 7.0322481312155667e-05 0 1.5368317988726587e-05 6.2188394021195278e-05 0 2.7706540144507269e-05 6.3839064727106646e-05 0 2.9296511147403777e-05 7.5697220462248518e-05 0 1.9300036724040026e-05 7.0322481312155667e-05 0 1.5331598735028593e-05 -1.2579327143131963e-05 0 1.5662683114192694e-05 -1.37053366333881e-05 0 1.4445464505765022e-05 -1.3920897257232865e-05 0 2.1528785130176535e-05 2.5471227716757706e-05 0 2.2472769858320344e-05 3.0822904215330077e-05 0 2.9296511147403777e-05 7.5697220462248518e-05 0 1.9300036724040026e-05 7.0322481312155667e-05 0 1.7152198343145582e-05 7.8439483870239502e-05 0 1.3476087796585444e-05 -1.2537304519792119e-05 0 1.2879216061767591e-05 -1.3738033417821691e-05 0 1.4445464505765022e-05 -1.3920897257232865e-05 0 1.3476087796585444e-05 -1.2537304519792119e-05 0 1.2879216061767591e-05 -1.3738033417821691e-05 0 1.1542944212457049e-05 -1.2283321556029908e-05 0 1.3476087796585444e-05 -1.2537304519792119e-05 0 1.5331598735028593e-05 -1.2579327143131963e-05 0 1.4445464505765022e-05 -1.3920897257232865e-05 0 1.2879216061767591e-05 -1.3738033417821691e-05 0 1.4445464505765022e-05 -1.3920897257232865e-05 0 1.3202346655968821e-05 -1.4734807627733421e-05 0 1.4445464505765022e-05 -1.3920897257232865e-05 0 1.3202346655968821e-05 -1.4734807627733421e-05 0 1.496450100446973e-05 -1.5098538290801175e-05 0 1.2879216061767591e-05 -1.3738033417821691e-05 0 1.3202346655968821e-05 -1.4734807627733421e-05 0 1.0903208794764205e-05 -1.3498815628952934e-05 0 1.3202346655968821e-05 -1.4734807627733421e-05 0 1.0903208794764205e-05 -1.3498815628952934e-05 0 1.2204338208993025e-05 -1.5180965439996941e-05 0 1.2879216061767591e-05 -1.3738033417821691e-05 0 1.0903208794764205e-05 -1.3498815628952934e-05 0 1.1542944212457049e-05 -1.2283321556029908e-05 0 1.0903208794764205e-05 -1.3498815628952934e-05 0 8.5199191547812305e-06 -1.1393820842559869e-05 0 9.8859716901867812e-06 -1.1732268626897706e-05 0 1.0903208794764205e-05 -1.3498815628952934e-05 0 1.1542944212457049e-05 -1.2283321556029908e-05 0 9.8859716901867812e-06 -1.1732268626897706e-05 0 1.0903208794764205e-05 -1.3498815628952934e-05 0 8.7943497999856157e-06 -1.2837404298740478e-05 0 1.0279511089285657e-05 -1.4788780945136432e-05 0 8.7943497999856157e-06 -1.2837404298740478e-05 0 1.0279511089285657e-05 -1.4788780945136432e-05 0 8.1040101059205973e-06 -1.3404732362303993e-05 0 8.7943497999856157e-06 -1.2837404298740478e-05 0 8.5199191547812305e-06 -1.1393820842559869e-05 0 7.3214118611447e-06 -1.1713167100264697e-05 0 1.0903208794764205e-05 -1.3498815628952934e-05 0 8.7943497999856157e-06 -1.2837404298740478e-05 0 8.5199191547812305e-06 -1.1393820842559869e-05 0 7.7056183928102897e-06 -8.7642774465455026e-06 0 8.5199191547812305e-06 -1.1393820842559869e-05 0 9.8859716901867812e-06 -1.1732268626897706e-05 0 8.5199191547812305e-06 -1.1393820842559869e-05 0 7.1673555694855577e-06 -1.0106001548576415e-05 0 7.3214118611447e-06 -1.1713167100264697e-05 0 7.7056183928102897e-06 -8.7642774465455026e-06 0 8.5199191547812305e-06 -1.1393820842559869e-05 0 7.1673555694855577e-06 -1.0106001548576415e-05 0 7.7056183928102897e-06 -8.7642774465455026e-06 0 6.2643012239795802e-06 -8.2579561021635364e-06 0 7.1673555694855577e-06 -1.0106001548576415e-05 0 7.7056183928102897e-06 -8.7642774465455026e-06 0 9.8168014355626848e-06 -9.9225350701533788e-06 0 9.8859716901867812e-06 -1.1732268626897706e-05 0 1.1625087551716944e-05 -1.0877130310151749e-05 0 9.8168014355626848e-06 -9.9225350701533788e-06 0 1.1542944212457049e-05 -1.2283321556029908e-05 0 9.8168014355626848e-06 -9.9225350701533788e-06 0 1.1542944212457049e-05 -1.2283321556029908e-05 0 9.8859716901867812e-06 -1.1732268626897706e-05 0 -3.344223224504131e-05 4.0565447907763663e-05 0 -2.4486280284993371e-05 4.4429172560603506e-05 0 -2.4777161041101166e-05 3.4339947599646839e-05 0 -3.344223224504131e-05 4.0565447907763663e-05 0 -2.4486280284993371e-05 4.4429172560603506e-05 0 -3.5772250829227881e-05 5.1774644590011341e-05 0 -2.4486280284993371e-05 4.4429172560603506e-05 0 -2.4777161041101166e-05 3.4339947599646839e-05 0 -1.7518599083742796e-05 3.4438250359687495e-05 0 -3.344223224504131e-05 4.0565447907763663e-05 0 -2.4777161041101166e-05 3.4339947599646839e-05 0 -3.0244986548934048e-05 3.0236086871426817e-05 0 -3.0244986548934048e-05 3.0236086871426817e-05 0 -2.6800065331552476e-05 2.139215538406224e-05 0 -1.8634864791360665e-05 2.3634964173222579e-05 0 -2.4777161041101166e-05 3.4339947599646839e-05 0 -1.8634864791360665e-05 2.3634964173222579e-05 0 -1.7518599083742796e-05 3.4438250359687495e-05 0 -2.4777161041101166e-05 3.4339947599646839e-05 0 -3.0244986548934048e-05 3.0236086871426817e-05 0 -1.8634864791360665e-05 2.3634964173222579e-05 0 -1.8634864791360665e-05 2.3634964173222579e-05 0 -1.2109430811491152e-05 2.8100718729384055e-05 0 -1.7518599083742796e-05 3.4438250359687495e-05 0 -1.8634864791360665e-05 2.3634964173222579e-05 0 -9.0357488497441204e-06 1.90222402406061e-05 0 -1.2109430811491152e-05 2.8100718729384055e-05 0 -1.2109430811491152e-05 2.8100718729384055e-05 0 -1.1432446046276493e-05 3.5428840045206539e-05 0 -5.7015675377225158e-06 2.9698032795707809e-05 0 -1.2109430811491152e-05 2.8100718729384055e-05 0 -1.1432446046276493e-05 3.5428840045206539e-05 0 -1.7518599083742796e-05 3.4438250359687495e-05 0 -1.1432446046276493e-05 3.5428840045206539e-05 0 -1.7518599083742796e-05 3.4438250359687495e-05 0 -1.5026767879880566e-05 4.3636606281557497e-05 0 -2.4486280284993371e-05 4.4429172560603506e-05 0 -1.7518599083742796e-05 3.4438250359687495e-05 0 -1.5026767879880566e-05 4.3636606281557497e-05 0 -1.1432446046276493e-05 3.5428840045206539e-05 0 -1.5026767879880566e-05 4.3636606281557497e-05 0 -6.6711189717917859e-06 4.2304953666861972e-05 0 -6.6711189717917859e-06 4.2304953666861972e-05 0 1.6014135025813328e-06 3.9896924590838101e-05 0 -7.1097960687469152e-07 5.1251229624721799e-05 0 -6.6711189717917859e-06 4.2304953666861972e-05 0 -5.7015675377225158e-06 2.9698032795707809e-05 0 1.6014135025813328e-06 3.9896924590838101e-05 0 -5.7015675377225158e-06 2.9698032795707809e-05 0 2.8750074549940221e-06 2.6596228096077861e-05 0 1.6014135025813328e-06 3.9896924590838101e-05 0 -1.1432446046276493e-05 3.5428840045206539e-05 0 -6.6711189717917859e-06 4.2304953666861972e-05 0 -5.7015675377225158e-06 2.9698032795707809e-05 0 -9.0357488497441204e-06 1.90222402406061e-05 0 -1.2109430811491152e-05 2.8100718729384055e-05 0 -5.7015675377225158e-06 2.9698032795707809e-05 0 -9.0357488497441204e-06 1.90222402406061e-05 0 -5.7015675377225158e-06 2.9698032795707809e-05 0 -2.0647043134900071e-06 1.8535247663533688e-05 0 -5.7015675377225158e-06 2.9698032795707809e-05 0 -2.0647043134900071e-06 1.8535247663533688e-05 0 2.8750074549940221e-06 2.6596228096077861e-05 0 -2.0647043134900071e-06 1.8535247663533688e-05 0 2.8750074549940221e-06 2.6596228096077861e-05 0 2.9691676472304975e-06 1.7451071907161181e-05 0 2.8750074549940221e-06 2.6596228096077861e-05 0 2.9691676472304975e-06 1.7451071907161181e-05 0 7.5045270147331069e-06 1.5801529957099675e-05 0 1.1100520114992361e-05 2.77842363859575e-05 0 2.8750074549940221e-06 2.6596228096077861e-05 0 7.5045270147331069e-06 1.5801529957099675e-05 0 1.1100520114992361e-05 2.77842363859575e-05 0 2.8750074549940221e-06 2.6596228096077861e-05 0 1.0352149713493727e-05 3.8669544569699873e-05 0 2.8750074549940221e-06 2.6596228096077861e-05 0 1.6014135025813328e-06 3.9896924590838101e-05 0 1.0352149713493727e-05 3.8669544569699873e-05 0 1.6014135025813328e-06 3.9896924590838101e-05 0 1.0352149713493727e-05 3.8669544569699873e-05 0 9.720023998635778e-06 5.1236629124015113e-05 0 1.7515951413438119e-05 4.7947776720310065e-05 0 1.0352149713493727e-05 3.8669544569699873e-05 0 9.720023998635778e-06 5.1236629124015113e-05 0 1.6014135025813328e-06 3.9896924590838101e-05 0 9.720023998635778e-06 5.1236629124015113e-05 0 -7.1097960687469152e-07 5.1251229624721799e-05 0 9.720023998635778e-06 5.1236629124015113e-05 0 5.5077630673405123e-06 5.8944060471199612e-05 0 -7.1097960687469152e-07 5.1251229624721799e-05 0 9.720023998635778e-06 5.1236629124015113e-05 0 5.5077630673405123e-06 5.8944060471199612e-05 0 1.5368317988726587e-05 6.2188394021195278e-05 0 1.9200646000621647e-05 5.5667367482925242e-05 0 9.720023998635778e-06 5.1236629124015113e-05 0 1.5368317988726587e-05 6.2188394021195278e-05 0 1.9300036724040026e-05 7.0322481312155667e-05 0 1.5368317988726587e-05 6.2188394021195278e-05 0 7.2410613504415843e-06 7.0009641834734802e-05 0 1.9300036724040026e-05 7.0322481312155667e-05 0 7.2410613504415843e-06 7.0009641834734802e-05 0 1.7152198343145582e-05 7.8439483870239502e-05 0 5.5077630673405123e-06 5.8944060471199612e-05 0 1.5368317988726587e-05 6.2188394021195278e-05 0 7.2410613504415843e-06 7.0009641834734802e-05 0 5.5077630673405123e-06 5.8944060471199612e-05 0 7.2410613504415843e-06 7.0009641834734802e-05 0 -3.8077502999115654e-06 6.0133186637559474e-05 0 7.2410613504415843e-06 7.0009641834734802e-05 0 -5.4071390815803464e-06 7.0510773541911326e-05 0 -3.8077502999115654e-06 6.0133186637559474e-05 0 7.2410613504415843e-06 7.0009641834734802e-05 0 -5.4071390815803464e-06 7.0510773541911326e-05 0 -2.5950525996668644e-06 8.063207578592064e-05 0 -5.4071390815803464e-06 7.0510773541911326e-05 0 -3.8077502999115654e-06 6.0133186637559474e-05 0 -1.3952041468516307e-05 6.941386082609062e-05 0 -3.8077502999115654e-06 6.0133186637559474e-05 0 -1.1020363940775917e-05 5.4396968976835292e-05 0 -1.3952041468516307e-05 6.941386082609062e-05 0 -3.8077502999115654e-06 6.0133186637559474e-05 0 -7.1097960687469152e-07 5.1251229624721799e-05 0 -1.1020363940775917e-05 5.4396968976835292e-05 0 5.5077630673405123e-06 5.8944060471199612e-05 0 -3.8077502999115654e-06 6.0133186637559474e-05 0 -7.1097960687469152e-07 5.1251229624721799e-05 0 -6.6711189717917859e-06 4.2304953666861972e-05 0 -7.1097960687469152e-07 5.1251229624721799e-05 0 -1.1020363940775917e-05 5.4396968976835292e-05 0 -1.5026767879880566e-05 4.3636606281557497e-05 0 -6.6711189717917859e-06 4.2304953666861972e-05 0 -1.1020363940775917e-05 5.4396968976835292e-05 0 -1.5026767879880566e-05 4.3636606281557497e-05 0 -1.936385207069863e-05 5.2293156614857024e-05 0 -1.1020363940775917e-05 5.4396968976835292e-05 0 -2.4486280284993371e-05 4.4429172560603506e-05 0 -1.5026767879880566e-05 4.3636606281557497e-05 0 -1.936385207069863e-05 5.2293156614857024e-05 0 -1.936385207069863e-05 5.2293156614857024e-05 0 -1.9584674777566896e-05 6.0711628003298129e-05 0 -2.7620601353181985e-05 5.8525628971646961e-05 0 -1.936385207069863e-05 5.2293156614857024e-05 0 -1.1020363940775917e-05 5.4396968976835292e-05 0 -1.9584674777566896e-05 6.0711628003298129e-05 0 -1.1020363940775917e-05 5.4396968976835292e-05 0 -1.3952041468516307e-05 6.941386082609062e-05 0 -1.9584674777566896e-05 6.0711628003298129e-05 0 -5.4071390815803464e-06 7.0510773541911326e-05 0 -1.3952041468516307e-05 6.941386082609062e-05 0 -1.2811190080146811e-05 8.0423302706984152e-05 0 -1.3952041468516307e-05 6.941386082609062e-05 0 -2.6360553486469681e-05 6.9493856229957656e-05 0 -2.0781259050419794e-05 7.747838245088416e-05 0 -1.3952041468516307e-05 6.941386082609062e-05 0 -1.9584674777566896e-05 6.0711628003298129e-05 0 -2.6360553486469681e-05 6.9493856229957656e-05 0 -1.9584674777566896e-05 6.0711628003298129e-05 0 -2.6360553486469681e-05 6.9493856229957656e-05 0 -2.7620601353181985e-05 5.8525628971646961e-05 0 -2.6360553486469681e-05 6.9493856229957656e-05 0 -3.7538283827663573e-05 6.3727948974891745e-05 0 -3.8701232894970549e-05 7.5989181989134138e-05 0 -2.6360553486469681e-05 6.9493856229957656e-05 0 -3.8701232894970549e-05 7.5989181989134138e-05 0 -2.9216300627949258e-05 8.0962156495089946e-05 0 -2.6360553486469681e-05 6.9493856229957656e-05 0 -3.7538283827663573e-05 6.3727948974891745e-05 0 -2.7620601353181985e-05 5.8525628971646961e-05 0 -3.7538283827663573e-05 6.3727948974891745e-05 0 -2.7620601353181985e-05 5.8525628971646961e-05 0 -3.5772250829227881e-05 5.1774644590011341e-05 0 -2.4486280284993371e-05 4.4429172560603506e-05 0 -1.936385207069863e-05 5.2293156614857024e-05 0 -2.7620601353181985e-05 5.8525628971646961e-05 0 -2.4486280284993371e-05 4.4429172560603506e-05 0 -2.7620601353181985e-05 5.8525628971646961e-05 0 -3.5772250829227881e-05 5.1774644590011341e-05 0 -4.0038738650361469e-05 0.00010110861702059093 0 -2.4117439054460187e-05 0.00010142406580716067 0 -2.8786650690639603e-05 0.00011353879396531104 0 -4.0038738650361469e-05 0.00010110861702059093 0 -3.0639679893929035e-05 9.2089261055361158e-05 0 -2.4117439054460187e-05 0.00010142406580716067 0 -3.0639679893929035e-05 9.2089261055361158e-05 0 -2.1724459592358546e-05 8.7449316311663178e-05 0 -2.4117439054460187e-05 0.00010142406580716067 0 -4.0038738650361469e-05 0.00010110861702059093 0 -3.0639679893929035e-05 9.2089261055361158e-05 0 -3.9526259659529352e-05 8.8469996543318917e-05 0 -3.0639679893929035e-05 9.2089261055361158e-05 0 -3.9526259659529352e-05 8.8469996543318917e-05 0 -2.9216300627949258e-05 8.0962156495089946e-05 0 -3.9526259659529352e-05 8.8469996543318917e-05 0 -3.8701232894970549e-05 7.5989181989134138e-05 0 -2.9216300627949258e-05 8.0962156495089946e-05 0 -2.6360553486469681e-05 6.9493856229957656e-05 0 -2.9216300627949258e-05 8.0962156495089946e-05 0 -2.0781259050419794e-05 7.747838245088416e-05 0 -3.0639679893929035e-05 9.2089261055361158e-05 0 -2.9216300627949258e-05 8.0962156495089946e-05 0 -2.1724459592358546e-05 8.7449316311663178e-05 0 -2.1724459592358546e-05 8.7449316311663178e-05 0 -2.0781259050419794e-05 7.747838245088416e-05 0 -1.2811190080146811e-05 8.0423302706984152e-05 0 -2.9216300627949258e-05 8.0962156495089946e-05 0 -2.1724459592358546e-05 8.7449316311663178e-05 0 -2.0781259050419794e-05 7.747838245088416e-05 0 -1.3952041468516307e-05 6.941386082609062e-05 0 -2.0781259050419794e-05 7.747838245088416e-05 0 -1.2811190080146811e-05 8.0423302706984152e-05 0 -2.1724459592358546e-05 8.7449316311663178e-05 0 -1.2811190080146811e-05 8.0423302706984152e-05 0 -1.2672874905372276e-05 9.1206608585993524e-05 0 -1.2672874905372276e-05 9.1206608585993524e-05 0 -2.4117439054460187e-05 0.00010142406580716067 0 -1.1898528175989136e-05 0.00010254083461615884 0 -2.1724459592358546e-05 8.7449316311663178e-05 0 -1.2672874905372276e-05 9.1206608585993524e-05 0 -2.4117439054460187e-05 0.00010142406580716067 0 -2.4117439054460187e-05 0.00010142406580716067 0 -1.1898528175989136e-05 0.00010254083461615884 0 -1.6530299765864891e-05 0.00011483136569997075 0 -1.1898528175989136e-05 0.00010254083461615884 0 -3.6292251613401113e-06 9.5255586455859212e-05 0 -2.6042241908246207e-06 0.00010894601669509929 0 -3.6292251613401113e-06 9.5255586455859212e-05 0 6.4273247760116479e-06 0.00010047605511058822 0 -2.6042241908246207e-06 0.00010894601669509929 0 -3.6292251613401113e-06 9.5255586455859212e-05 0 3.9921845504808231e-06 8.8660865463913543e-05 0 6.4273247760116479e-06 0.00010047605511058822 0 -1.2672874905372276e-05 9.1206608585993524e-05 0 -1.1898528175989136e-05 0.00010254083461615884 0 -3.6292251613401113e-06 9.5255586455859212e-05 0 -1.2811190080146811e-05 8.0423302706984152e-05 0 -1.2672874905372276e-05 9.1206608585993524e-05 0 -2.5950525996668644e-06 8.063207578592064e-05 0 -1.2672874905372276e-05 9.1206608585993524e-05 0 -3.6292251613401113e-06 9.5255586455859212e-05 0 -2.5950525996668644e-06 8.063207578592064e-05 0 -5.4071390815803464e-06 7.0510773541911326e-05 0 -1.2811190080146811e-05 8.0423302706984152e-05 0 -2.5950525996668644e-06 8.063207578592064e-05 0 -2.5950525996668644e-06 8.063207578592064e-05 0 3.9921845504808231e-06 8.8660865463913543e-05 0 7.8308481555394295e-06 8.1424293854242966e-05 0 -3.6292251613401113e-06 9.5255586455859212e-05 0 -2.5950525996668644e-06 8.063207578592064e-05 0 3.9921845504808231e-06 8.8660865463913543e-05 0 3.9921845504808231e-06 8.8660865463913543e-05 0 7.8308481555394295e-06 8.1424293854242966e-05 0 1.3467602600393648e-05 8.9148936915528187e-05 0 7.2410613504415843e-06 7.0009641834734802e-05 0 7.8308481555394295e-06 8.1424293854242966e-05 0 1.7152198343145582e-05 7.8439483870239502e-05 0 7.2410613504415843e-06 7.0009641834734802e-05 0 -2.5950525996668644e-06 8.063207578592064e-05 0 7.8308481555394295e-06 8.1424293854242966e-05 0 7.8308481555394295e-06 8.1424293854242966e-05 0 1.7152198343145582e-05 7.8439483870239502e-05 0 1.3467602600393648e-05 8.9148936915528187e-05 0 1.7152198343145582e-05 7.8439483870239502e-05 0 1.3467602600393648e-05 8.9148936915528187e-05 0 2.2756652559744082e-05 8.4990732831126848e-05 0 1.3467602600393648e-05 8.9148936915528187e-05 0 6.4273247760116479e-06 0.00010047605511058822 0 1.7958682660745224e-05 0.00010235437989183484 0 1.3467602600393648e-05 8.9148936915528187e-05 0 1.7958682660745224e-05 0.00010235437989183484 0 2.2868868282910258e-05 9.3095793893311471e-05 0 3.9921845504808231e-06 8.8660865463913543e-05 0 1.3467602600393648e-05 8.9148936915528187e-05 0 6.4273247760116479e-06 0.00010047605511058822 0 6.4273247760116479e-06 0.00010047605511058822 0 1.7958682660745224e-05 0.00010235437989183484 0 1.0177494457865077e-05 0.00011461592506643028 0 1.7958682660745224e-05 0.00010235437989183484 0 1.0177494457865077e-05 0.00011461592506643028 0 2.2624116311074316e-05 0.00011353098647171567 0 1.0177494457865077e-05 0.00011461592506643028 0 2.1052128832892194e-05 0.00012491310931180645 0 8.6880712354453757e-06 0.00012775022713449062 0 1.0177494457865077e-05 0.00011461592506643028 0 2.1052128832892194e-05 0.00012491310931180645 0 2.2624116311074316e-05 0.00011353098647171567 0 2.1052128832892194e-05 0.00012491310931180645 0 1.6670902441634405e-05 0.00013303474550912682 0 8.6880712354453757e-06 0.00012775022713449062 0 2.1052128832892194e-05 0.00012491310931180645 0 1.6670902441634405e-05 0.00013303474550912682 0 2.7802566314240649e-05 0.00013176299146178282 0 1.6670902441634405e-05 0.00013303474550912682 0 2.7802566314240649e-05 0.00013176299146178282 0 2.4134191286765646e-05 0.0001398357661643471 0 1.6670902441634405e-05 0.00013303474550912682 0 1.0296335850002556e-05 0.00013991015584810271 0 2.4134191286765646e-05 0.0001398357661643471 0 1.6670902441634405e-05 0.00013303474550912682 0 1.0296335850002556e-05 0.00013991015584810271 0 8.6880712354453757e-06 0.00012775022713449062 0 -2.7407074266229736e-06 0.00013961814064532508 0 -3.0592766614709635e-06 0.00012329401421359989 0 -1.4407213951533418e-05 0.00012762225071372198 0 8.6880712354453757e-06 0.00012775022713449062 0 -2.7407074266229736e-06 0.00013961814064532508 0 -3.0592766614709635e-06 0.00012329401421359989 0 1.0296335850002556e-05 0.00013991015584810271 0 8.6880712354453757e-06 0.00012775022713449062 0 -2.7407074266229736e-06 0.00013961814064532508 0 -3.0592766614709635e-06 0.00012329401421359989 0 -2.6042241908246207e-06 0.00010894601669509929 0 -1.6530299765864891e-05 0.00011483136569997075 0 1.0177494457865077e-05 0.00011461592506643028 0 8.6880712354453757e-06 0.00012775022713449062 0 -3.0592766614709635e-06 0.00012329401421359989 0 1.0177494457865077e-05 0.00011461592506643028 0 -3.0592766614709635e-06 0.00012329401421359989 0 -2.6042241908246207e-06 0.00010894601669509929 0 6.4273247760116479e-06 0.00010047605511058822 0 1.0177494457865077e-05 0.00011461592506643028 0 -2.6042241908246207e-06 0.00010894601669509929 0 -1.1898528175989136e-05 0.00010254083461615884 0 -2.6042241908246207e-06 0.00010894601669509929 0 -1.6530299765864891e-05 0.00011483136569997075 0 -2.4117439054460187e-05 0.00010142406580716067 0 -1.6530299765864891e-05 0.00011483136569997075 0 -2.8786650690639603e-05 0.00011353879396531104 0 -1.6530299765864891e-05 0.00011483136569997075 0 -1.4407213951533418e-05 0.00012762225071372198 0 -2.6384457534955601e-05 0.00012502789569617957 0 -1.6530299765864891e-05 0.00011483136569997075 0 -2.6384457534955601e-05 0.00012502789569617957 0 -2.8786650690639603e-05 0.00011353879396531104 0 -3.0592766614709635e-06 0.00012329401421359989 0 -1.6530299765864891e-05 0.00011483136569997075 0 -1.4407213951533418e-05 0.00012762225071372198 0 -2.7407074266229736e-06 0.00013961814064532508 0 -1.4407213951533418e-05 0.00012762225071372198 0 -1.5314312683048032e-05 0.00013937822651538249 0 -1.5314312683048032e-05 0.00013937822651538249 0 -2.1637623771669333e-05 0.00013278148248817252 0 -2.7885609913227651e-05 0.00013924067667147377 0 -1.4407213951533418e-05 0.00012762225071372198 0 -1.5314312683048032e-05 0.00013937822651538249 0 -2.1637623771669333e-05 0.00013278148248817252 0 -1.4407213951533418e-05 0.00012762225071372198 0 -2.1637623771669333e-05 0.00013278148248817252 0 -2.6384457534955601e-05 0.00012502789569617957 0 -2.1637623771669333e-05 0.00013278148248817252 0 -2.6384457534955601e-05 0.00012502789569617957 0 -3.2074656249267254e-05 0.00013207041275651424 0 -2.1637623771669333e-05 0.00013278148248817252 0 -3.2074656249267254e-05 0.00013207041275651424 0 -2.7885609913227651e-05 0.00013924067667147377 0 -3.2074656249267254e-05 0.00013207041275651424 0 -2.7885609913227651e-05 0.00013924067667147377 0 -4.0467527332025293e-05 0.00013923119304080615 0 -3.2074656249267254e-05 0.00013207041275651424 0 -4.0467527332025293e-05 0.00013923119304080615 0 -4.0455130055602279e-05 0.0001265870032431967 0 -2.6384457534955601e-05 0.00012502789569617957 0 -3.2074656249267254e-05 0.00013207041275651424 0 -4.0455130055602279e-05 0.0001265870032431967 0 -4.0455130055602279e-05 0.0001265870032431967 0 -2.8786650690639603e-05 0.00011353879396531104 0 -4.032690897441192e-05 0.00011386910507550848 0 -2.6384457534955601e-05 0.00012502789569617957 0 -4.0455130055602279e-05 0.0001265870032431967 0 -2.8786650690639603e-05 0.00011353879396531104 0 -4.0038738650361469e-05 0.00010110861702059093 0 -2.8786650690639603e-05 0.00011353879396531104 0 -4.032690897441192e-05 0.00011386910507550848 0 1.2789982158726172e-05 -1.6211833560037578e-05 0 1.2431540432658275e-05 -1.7337743708726158e-05 0 1.1142226993584285e-05 -1.6258500076080442e-05 0 1.2789982158726172e-05 -1.6211833560037578e-05 0 1.4353297288147253e-05 -1.7508336180960818e-05 0 1.4669466979590481e-05 -1.6675511941088722e-05 0 1.2789982158726172e-05 -1.6211833560037578e-05 0 1.3938681054129975e-05 -1.5871008101616547e-05 0 1.4669466979590481e-05 -1.6675511941088722e-05 0 1.2789982158726172e-05 -1.6211833560037578e-05 0 1.4353297288147253e-05 -1.7508336180960818e-05 0 1.2431540432658275e-05 -1.7337743708726158e-05 0 1.2431540432658275e-05 -1.7337743708726158e-05 0 1.0321730074171308e-05 -1.7005499196362172e-05 0 1.1142226993584285e-05 -1.6258500076080442e-05 0 1.0321730074171308e-05 -1.7005499196362172e-05 0 9.5885179272257166e-06 -1.5687187006359404e-05 0 1.1142226993584285e-05 -1.6258500076080442e-05 0 1.0321730074171308e-05 -1.7005499196362172e-05 0 9.5885179272257166e-06 -1.5687187006359404e-05 0 9.0716676494557001e-06 -1.6298714655348777e-05 0 9.5885179272257166e-06 -1.5687187006359404e-05 0 1.1142226993584285e-05 -1.6258500076080442e-05 0 1.0279511089285657e-05 -1.4788780945136432e-05 0 9.5885179272257166e-06 -1.5687187006359404e-05 0 1.0279511089285657e-05 -1.4788780945136432e-05 0 8.806814799927519e-06 -1.4682310805455392e-05 0 1.0279511089285657e-05 -1.4788780945136432e-05 0 8.806814799927519e-06 -1.4682310805455392e-05 0 8.1040101059205973e-06 -1.3404732362303993e-05 0 1.0903208794764205e-05 -1.3498815628952934e-05 0 1.0279511089285657e-05 -1.4788780945136432e-05 0 1.2204338208993025e-05 -1.5180965439996941e-05 0 1.2789982158726172e-05 -1.6211833560037578e-05 0 1.0279511089285657e-05 -1.4788780945136432e-05 0 1.2204338208993025e-05 -1.5180965439996941e-05 0 1.2789982158726172e-05 -1.6211833560037578e-05 0 1.1142226993584285e-05 -1.6258500076080442e-05 0 1.0279511089285657e-05 -1.4788780945136432e-05 0 1.2789982158726172e-05 -1.6211833560037578e-05 0 1.2204338208993025e-05 -1.5180965439996941e-05 0 1.3938681054129975e-05 -1.5871008101616547e-05 0 1.3202346655968821e-05 -1.4734807627733421e-05 0 1.2204338208993025e-05 -1.5180965439996941e-05 0 1.3938681054129975e-05 -1.5871008101616547e-05 0 1.3202346655968821e-05 -1.4734807627733421e-05 0 1.496450100446973e-05 -1.5098538290801175e-05 0 1.3938681054129975e-05 -1.5871008101616547e-05 0 1.5662683114192694e-05 -1.37053366333881e-05 0 1.4445464505765022e-05 -1.3920897257232865e-05 0 1.496450100446973e-05 -1.5098538290801175e-05 0 1.496450100446973e-05 -1.5098538290801175e-05 0 1.6367394685559921e-05 -1.4602548769467075e-05 0 1.5864105270739587e-05 -1.6034038238280529e-05 0 1.496450100446973e-05 -1.5098538290801175e-05 0 1.3938681054129975e-05 -1.5871008101616547e-05 0 1.5864105270739587e-05 -1.6034038238280529e-05 0 2.9296511147403777e-05 7.5697220462248518e-05 0 1.7152198343145582e-05 7.8439483870239502e-05 0 2.2756652559744082e-05 8.4990732831126848e-05 0 2.9296511147403777e-05 7.5697220462248518e-05 0 3.075664961911401e-05 8.7561242624080045e-05 0 2.2756652559744082e-05 8.4990732831126848e-05 0 1.5662683114192694e-05 -1.37053366333881e-05 0 1.496450100446973e-05 -1.5098538290801175e-05 0 1.6367394685559921e-05 -1.4602548769467075e-05 0 2.2472769858320344e-05 3.0822904215330077e-05 0 2.3576876871257099e-05 3.6935525885137538e-05 0 1.3467602600393648e-05 8.9148936915528187e-05 0 2.2756652559744082e-05 8.4990732831126848e-05 0 2.2868868282910258e-05 9.3095793893311471e-05 0 3.075664961911401e-05 8.7561242624080045e-05 0 2.2756652559744082e-05 8.4990732831126848e-05 0 2.2868868282910258e-05 9.3095793893311471e-05 0 1.7958682660745224e-05 0.00010235437989183484 0 2.2868868282910258e-05 9.3095793893311471e-05 0 3.2243591615093635e-05 9.9872416255378807e-05 0 2.3576876871257099e-05 3.6935525885137538e-05 0 2.4509673497798027e-05 4.1333729610611381e-05 0 1.6367394685559921e-05 -1.4602548769467075e-05 0 1.7425364758792144e-05 -1.5531174338110714e-05 0 1.5864105270739587e-05 -1.6034038238280529e-05 0 3.075664961911401e-05 8.7561242624080045e-05 0 2.2868868282910258e-05 9.3095793893311471e-05 0 3.2243591615093635e-05 9.9872416255378807e-05 0 2.4509673497798027e-05 4.1333729610611381e-05 0 2.7145915403163195e-05 4.8904162119048009e-05 0 1.7958682660745224e-05 0.00010235437989183484 0 3.2243591615093635e-05 9.9872416255378807e-05 0 2.2624116311074316e-05 0.00011353098647171567 0 1.3938681054129975e-05 -1.5871008101616547e-05 0 1.4669466979590481e-05 -1.6675511941088722e-05 0 1.5864105270739587e-05 -1.6034038238280529e-05 0 1.7425364758792144e-05 -1.5531174338110714e-05 0 1.5864105270739587e-05 -1.6034038238280529e-05 0 1.6557246698441624e-05 -1.7394752750830981e-05 0 1.4353297288147253e-05 -1.7508336180960818e-05 0 1.4669466979590481e-05 -1.6675511941088722e-05 0 1.6557246698441624e-05 -1.7394752750830981e-05 0 1.4669466979590481e-05 -1.6675511941088722e-05 0 1.5864105270739587e-05 -1.6034038238280529e-05 0 1.6557246698441624e-05 -1.7394752750830981e-05 0 1.6557246698441624e-05 -1.7394752750830981e-05 0 1.8202320410605135e-05 -1.8479468151580995e-05 0 1.6051317685886179e-05 -1.8817899594079807e-05 0 1.4353297288147253e-05 -1.7508336180960818e-05 0 1.6557246698441624e-05 -1.7394752750830981e-05 0 1.6051317685886179e-05 -1.8817899594079807e-05 0 1.7425364758792144e-05 -1.5531174338110714e-05 0 1.6557246698441624e-05 -1.7394752750830981e-05 0 1.9014216748334593e-05 -1.6641350669030071e-05 0 1.6557246698441624e-05 -1.7394752750830981e-05 0 1.8202320410605135e-05 -1.8479468151580995e-05 0 1.9014216748334593e-05 -1.6641350669030071e-05 0 1.8202320410605135e-05 -1.8479468151580995e-05 0 1.6051317685886179e-05 -1.8817899594079807e-05 0 1.8731954541348206e-05 -2.0357388216098098e-05 0 3.2243591615093635e-05 9.9872416255378807e-05 0 2.2624116311074316e-05 0.00011353098647171567 0 3.3771984771016549e-05 0.00011201387583485023 0 2.7145915403163195e-05 4.8904162119048009e-05 0 2.4918393859173229e-05 5.2096488781809525e-05 0 1.8202320410605135e-05 -1.8479468151580995e-05 0 1.9014216748334593e-05 -1.6641350669030071e-05 0 2.119552290501588e-05 -1.8511603002623782e-05 0 2.2624116311074316e-05 0.00011353098647171567 0 3.3771984771016549e-05 0.00011201387583485023 0 3.5646677139086533e-05 0.00012484959653395541 0 2.1052128832892194e-05 0.00012491310931180645 0 2.2624116311074316e-05 0.00011353098647171567 0 3.5646677139086533e-05 0.00012484959653395541 0 2.1052128832892194e-05 0.00012491310931180645 0 3.5646677139086533e-05 0.00012484959653395541 0 2.7802566314240649e-05 0.00013176299146178282 0 2.4918393859173229e-05 5.2096488781809525e-05 0 4.3467035772741136e-05 5.8953920837417917e-05 0 3.5646677139086533e-05 0.00012484959653395541 0 3.8252035675358371e-05 0.00013818032614902254 0 2.7802566314240649e-05 0.00013176299146178282 0 3.8252035675358371e-05 0.00013818032614902254 0 2.7802566314240649e-05 0.00013176299146178282 0 2.4134191286765646e-05 0.0001398357661643471 0 1.6051317685886179e-05 -1.8817899594079807e-05 0 1.8731954541348206e-05 -2.0357388216098098e-05 0 1.4998612639252525e-05 -2.0485919592354333e-05 0 1.8202320410605135e-05 -1.8479468151580995e-05 0 2.119552290501588e-05 -1.8511603002623782e-05 0 1.8731954541348206e-05 -2.0357388216098098e-05 0 2.119552290501588e-05 -1.8511603002623782e-05 0 2.3751861100251135e-05 -2.1762508143398496e-05 0 1.8731954541348206e-05 -2.0357388216098098e-05 0 2.3751861100251135e-05 -2.1762508143398496e-05 0 1.8731954541348206e-05 -2.0357388216098098e-05 0 1.9467057775448751e-05 -2.3121977980592425e-05 0 1.8731954541348206e-05 -2.0357388216098098e-05 0 1.9467057775448751e-05 -2.3121977980592425e-05 0 1.4998612639252525e-05 -2.0485919592354333e-05 0 1.4998612639252525e-05 -2.0485919592354333e-05 0 1.258777293868165e-05 -1.9163772574939145e-05 0 1.2820678536015663e-05 -2.1561204352069665e-05 0 1.9467057775448751e-05 -2.3121977980592425e-05 0 1.5806599770673729e-05 -2.2759891885350703e-05 0 1.4998612639252525e-05 -2.0485919592354333e-05 0 1.5806599770673729e-05 -2.2759891885350703e-05 0 1.4998612639252525e-05 -2.0485919592354333e-05 0 1.2820678536015663e-05 -2.1561204352069665e-05 0 1.6051317685886179e-05 -1.8817899594079807e-05 0 1.4998612639252525e-05 -2.0485919592354333e-05 0 1.3638649617823879e-05 -1.8549332396195361e-05 0 1.4998612639252525e-05 -2.0485919592354333e-05 0 1.3638649617823879e-05 -1.8549332396195361e-05 0 1.258777293868165e-05 -1.9163772574939145e-05 0 1.2431540432658275e-05 -1.7337743708726158e-05 0 1.3638649617823879e-05 -1.8549332396195361e-05 0 1.1288936151539295e-05 -1.8085780408645832e-05 0 1.4353297288147253e-05 -1.7508336180960818e-05 0 1.2431540432658275e-05 -1.7337743708726158e-05 0 1.3638649617823879e-05 -1.8549332396195361e-05 0 1.4353297288147253e-05 -1.7508336180960818e-05 0 1.6051317685886179e-05 -1.8817899594079807e-05 0 1.3638649617823879e-05 -1.8549332396195361e-05 0 1.0321730074171308e-05 -1.7005499196362172e-05 0 1.1288936151539295e-05 -1.8085780408645832e-05 0 9.8955468936484716e-06 -1.7860954041322829e-05 0 1.2431540432658275e-05 -1.7337743708726158e-05 0 1.0321730074171308e-05 -1.7005499196362172e-05 0 1.1288936151539295e-05 -1.8085780408645832e-05 0 1.1288936151539295e-05 -1.8085780408645832e-05 0 1.258777293868165e-05 -1.9163772574939145e-05 0 1.0955030949281223e-05 -1.9167773717474165e-05 0 1.3638649617823879e-05 -1.8549332396195361e-05 0 1.1288936151539295e-05 -1.8085780408645832e-05 0 1.258777293868165e-05 -1.9163772574939145e-05 0 1.1288936151539295e-05 -1.8085780408645832e-05 0 1.0955030949281223e-05 -1.9167773717474165e-05 0 9.8955468936484716e-06 -1.7860954041322829e-05 0 1.258777293868165e-05 -1.9163772574939145e-05 0 1.0955030949281223e-05 -1.9167773717474165e-05 0 1.2820678536015663e-05 -2.1561204352069665e-05 0 1.0955030949281223e-05 -1.9167773717474165e-05 0 1.2820678536015663e-05 -2.1561204352069665e-05 0 1.0865110732722147e-05 -2.0025734332324158e-05 0 1.0955030949281223e-05 -1.9167773717474165e-05 0 1.0865110732722147e-05 -2.0025734332324158e-05 0 9.8512932412826502e-06 -1.8558134221091653e-05 0 1.0865110732722147e-05 -2.0025734332324158e-05 0 9.6560066477019104e-06 -1.8222387383425447e-05 0 9.8512932412826502e-06 -1.8558134221091653e-05 0 9.6560066477019104e-06 -1.8222387383425447e-05 0 8.7609330991023717e-06 -1.7465784336946143e-05 0 9.8512932412826502e-06 -1.8558134221091653e-05 0 8.7609330991023717e-06 -1.7465784336946143e-05 0 9.8512932412826502e-06 -1.8558134221091653e-05 0 9.8955468936484716e-06 -1.7860954041322829e-05 0 1.0955030949281223e-05 -1.9167773717474165e-05 0 9.8512932412826502e-06 -1.8558134221091653e-05 0 9.8955468936484716e-06 -1.7860954041322829e-05 0 9.756976310832036e-06 -1.6434144975451646e-05 0 8.6784618438261313e-06 -1.6782816106771974e-05 0 1.0861437567410905e-05 -1.5182167687283939e-05 0 9.6560066477019104e-06 -1.8222387383425447e-05 0 9.756976310832036e-06 -1.6434144975451646e-05 0 8.6784618438261313e-06 -1.6782816106771974e-05 0 9.6560066477019104e-06 -1.8222387383425447e-05 0 8.7609330991023717e-06 -1.7465784336946143e-05 0 8.6784618438261313e-06 -1.6782816106771974e-05 0 8.6784618438261313e-06 -1.6782816106771974e-05 0 7.9552745587848219e-06 -1.6809276112268094e-05 0 7.9415224256414729e-06 -1.6580625427104953e-05 0 8.7609330991023717e-06 -1.7465784336946143e-05 0 8.6784618438261313e-06 -1.6782816106771974e-05 0 7.9552745587848219e-06 -1.6809276112268094e-05 0 7.9552745587848219e-06 -1.6809276112268094e-05 0 8.639461061713993e-06 -1.6923834792664662e-05 0 7.672218877230851e-06 -1.6329688553236796e-05 0 7.9552745587848219e-06 -1.6809276112268094e-05 0 7.672218877230851e-06 -1.6329688553236796e-05 0 7.1267014748720229e-06 -1.6315699046620945e-05 0 7.9552745587848219e-06 -1.6809276112268094e-05 0 7.1267014748720229e-06 -1.6315699046620945e-05 0 7.9415224256414729e-06 -1.6580625427104953e-05 0 8.7609330991023717e-06 -1.7465784336946143e-05 0 9.8955468936484716e-06 -1.7860954041322829e-05 0 8.639461061713993e-06 -1.6923834792664662e-05 0 8.7609330991023717e-06 -1.7465784336946143e-05 0 7.9552745587848219e-06 -1.6809276112268094e-05 0 8.639461061713993e-06 -1.6923834792664662e-05 0 1.0321730074171308e-05 -1.7005499196362172e-05 0 9.8955468936484716e-06 -1.7860954041322829e-05 0 8.639461061713993e-06 -1.6923834792664662e-05 0 1.0321730074171308e-05 -1.7005499196362172e-05 0 8.639461061713993e-06 -1.6923834792664662e-05 0 9.0716676494557001e-06 -1.6298714655348777e-05 0 9.5885179272257166e-06 -1.5687187006359404e-05 0 9.0716676494557001e-06 -1.6298714655348777e-05 0 8.4122874084523825e-06 -1.5479996296633815e-05 0 9.0716676494557001e-06 -1.6298714655348777e-05 0 8.4122874084523825e-06 -1.5479996296633815e-05 0 8.1784158685903734e-06 -1.6174922300306553e-05 0 8.4122874084523825e-06 -1.5479996296633815e-05 0 8.1784158685903734e-06 -1.6174922300306553e-05 0 7.4698755938319483e-06 -1.5483106364272689e-05 0 8.639461061713993e-06 -1.6923834792664662e-05 0 9.0716676494557001e-06 -1.6298714655348777e-05 0 8.1784158685903734e-06 -1.6174922300306553e-05 0 8.1784158685903734e-06 -1.6174922300306553e-05 0 7.672218877230851e-06 -1.6329688553236796e-05 0 7.4698755938319483e-06 -1.5483106364272689e-05 0 8.639461061713993e-06 -1.6923834792664662e-05 0 8.1784158685903734e-06 -1.6174922300306553e-05 0 7.672218877230851e-06 -1.6329688553236796e-05 0 7.672218877230851e-06 -1.6329688553236796e-05 0 7.1267014748720229e-06 -1.6315699046620945e-05 0 6.6156868302446289e-06 -1.5283233545526735e-05 0 7.1267014748720229e-06 -1.6315699046620945e-05 0 6.6156868302446289e-06 -1.5283233545526735e-05 0 6.40836296027005e-06 -1.5820836400438117e-05 0 7.672218877230851e-06 -1.6329688553236796e-05 0 6.6156868302446289e-06 -1.5283233545526735e-05 0 7.4698755938319483e-06 -1.5483106364272689e-05 0 7.4698755938319483e-06 -1.5483106364272689e-05 0 6.3055682257964012e-06 -1.4236829192900314e-05 0 7.5781569052796102e-06 -1.4499435162623619e-05 0 6.6156868302446289e-06 -1.5283233545526735e-05 0 7.4698755938319483e-06 -1.5483106364272689e-05 0 6.3055682257964012e-06 -1.4236829192900314e-05 0 6.6156868302446289e-06 -1.5283233545526735e-05 0 6.3055682257964012e-06 -1.4236829192900314e-05 0 5.2965791590715867e-06 -1.4652915091733779e-05 0 6.3055682257964012e-06 -1.4236829192900314e-05 0 7.5781569052796102e-06 -1.4499435162623619e-05 0 6.9268585164622627e-06 -1.3052678102904426e-05 0 7.5781569052796102e-06 -1.4499435162623619e-05 0 6.9268585164622627e-06 -1.3052678102904426e-05 0 8.1040101059205973e-06 -1.3404732362303993e-05 0 7.5781569052796102e-06 -1.4499435162623619e-05 0 8.806814799927519e-06 -1.4682310805455392e-05 0 8.1040101059205973e-06 -1.3404732362303993e-05 0 8.4122874084523825e-06 -1.5479996296633815e-05 0 7.5781569052796102e-06 -1.4499435162623619e-05 0 8.806814799927519e-06 -1.4682310805455392e-05 0 9.5885179272257166e-06 -1.5687187006359404e-05 0 8.4122874084523825e-06 -1.5479996296633815e-05 0 8.806814799927519e-06 -1.4682310805455392e-05 0 8.4122874084523825e-06 -1.5479996296633815e-05 0 7.4698755938319483e-06 -1.5483106364272689e-05 0 7.5781569052796102e-06 -1.4499435162623619e-05 0 1.5087680772521073e-05 -4.6831555687398405e-05 0 8.4237472852410341e-06 -4.2595689470508689e-05 0 9.8774652720765617e-06 -4.9926359714841155e-05 0 9.8581958798022104e-06 -3.1390638781241521e-05 0 8.6303523136121767e-06 -2.6558965435104991e-05 0 1.5087680772521073e-05 -4.6831555687398405e-05 0 8.4237472852410341e-06 -4.2595689470508689e-05 0 1.3663429341969862e-05 -3.8876168852012625e-05 0 4.725804845032556e-06 -1.5846563167222319e-05 0 5.2965791590715867e-06 -1.4652915091733779e-05 0 3.6918206499411389e-06 -1.4247663091733366e-05 0 5.2965791590715867e-06 -1.4652915091733779e-05 0 4.3356173645315423e-06 -1.3090692058041157e-05 0 3.6918206499411389e-06 -1.4247663091733366e-05 0 6.3055682257964012e-06 -1.4236829192900314e-05 0 5.2965791590715867e-06 -1.4652915091733779e-05 0 5.3320928710032732e-06 -1.3459605186093356e-05 0 5.2965791590715867e-06 -1.4652915091733779e-05 0 5.3320928710032732e-06 -1.3459605186093356e-05 0 4.3356173645315423e-06 -1.3090692058041157e-05 0 6.6156868302446289e-06 -1.5283233545526735e-05 0 5.2965791590715867e-06 -1.4652915091733779e-05 0 6.40836296027005e-06 -1.5820836400438117e-05 0 4.725804845032556e-06 -1.5846563167222319e-05 0 5.2965791590715867e-06 -1.4652915091733779e-05 0 5.7386880860835445e-06 -1.5900991208013316e-05 0 5.2965791590715867e-06 -1.4652915091733779e-05 0 5.7386880860835445e-06 -1.5900991208013316e-05 0 6.40836296027005e-06 -1.5820836400438117e-05 0 5.7386880860835445e-06 -1.5900991208013316e-05 0 6.40836296027005e-06 -1.5820836400438117e-05 0 6.9335394426590563e-06 -1.6509233421214263e-05 0 7.1267014748720229e-06 -1.6315699046620945e-05 0 6.40836296027005e-06 -1.5820836400438117e-05 0 6.9335394426590563e-06 -1.6509233421214263e-05 0 5.7386880860835445e-06 -1.5900991208013316e-05 0 6.9335394426590563e-06 -1.6509233421214263e-05 0 6.0711621246757322e-06 -1.6943623119499525e-05 0 6.9335394426590563e-06 -1.6509233421214263e-05 0 6.0711621246757322e-06 -1.6943623119499525e-05 0 7.8350224119842985e-06 -1.7441673443357115e-05 0 1.649875829208889e-05 -5.5461052573859338e-05 0 9.8774652720765617e-06 -4.9926359714841155e-05 0 6.3083437992517776e-06 -5.6648237993310298e-05 0 1.649875829208889e-05 -5.5461052573859338e-05 0 1.0174366698964618e-05 -6.522976225094198e-05 0 6.3083437992517776e-06 -5.6648237993310298e-05 0 1.1084237837769987e-05 -3.5998790896484422e-05 0 1.3093127892005412e-05 -4.1387571464775846e-05 0 4.725804845032556e-06 -1.5846563167222319e-05 0 5.7386880860835445e-06 -1.5900991208013316e-05 0 6.0711621246757322e-06 -1.6943623119499525e-05 0 1.5087680772521073e-05 -4.6831555687398405e-05 0 1.649875829208889e-05 -5.5461052573859338e-05 0 9.8774652720765617e-06 -4.9926359714841155e-05 0 9.8581958798022104e-06 -3.1390638781241521e-05 0 1.1084237837769987e-05 -3.5998790896484422e-05 0 1.649875829208889e-05 -5.5461052573859338e-05 0 1.0174366698964618e-05 -6.522976225094198e-05 0 1.8071041905964281e-05 -6.4470582476758772e-05 0 1.3093127892005412e-05 -4.1387571464775846e-05 0 1.3625630885881758e-05 -4.4941765300749173e-05 0 7.8350224119842985e-06 -1.7441673443357115e-05 0 8.2905305614326719e-06 -1.6664214856471334e-05 0 1.0210082741407468e-05 -1.7001469277341492e-05 0 1.0174366698964618e-05 -6.522976225094198e-05 0 1.8071041905964281e-05 -6.4470582476758772e-05 0 1.995688699246349e-05 -7.4114542986304074e-05 0 1.0174366698964618e-05 -6.522976225094198e-05 0 1.995688699246349e-05 -7.4114542986304074e-05 0 9.6988084380327087e-06 -7.381465322028561e-05 0 7.1267014748720229e-06 -1.6315699046620945e-05 0 6.9335394426590563e-06 -1.6509233421214263e-05 0 7.9415224256414729e-06 -1.6580625427104953e-05 0 6.9335394426590563e-06 -1.6509233421214263e-05 0 8.2905305614326719e-06 -1.6664214856471334e-05 0 7.9415224256414729e-06 -1.6580625427104953e-05 0 6.9335394426590563e-06 -1.6509233421214263e-05 0 7.8350224119842985e-06 -1.7441673443357115e-05 0 8.2905305614326719e-06 -1.6664214856471334e-05 0 8.2905305614326719e-06 -1.6664214856471334e-05 0 7.9415224256414729e-06 -1.6580625427104953e-05 0 9.4264675939347017e-06 -1.6099443729991142e-05 0 8.6784618438261313e-06 -1.6782816106771974e-05 0 7.9415224256414729e-06 -1.6580625427104953e-05 0 9.4264675939347017e-06 -1.6099443729991142e-05 0 8.2905305614326719e-06 -1.6664214856471334e-05 0 9.4264675939347017e-06 -1.6099443729991142e-05 0 1.0210082741407468e-05 -1.7001469277341492e-05 0 9.4264675939347017e-06 -1.6099443729991142e-05 0 1.0210082741407468e-05 -1.7001469277341492e-05 0 1.3209228478044239e-05 -1.5502844143175321e-05 0 9.4264675939347017e-06 -1.6099443729991142e-05 0 1.0861437567410905e-05 -1.5182167687283939e-05 0 1.3209228478044239e-05 -1.5502844143175321e-05 0 8.6784618438261313e-06 -1.6782816106771974e-05 0 9.4264675939347017e-06 -1.6099443729991142e-05 0 1.0861437567410905e-05 -1.5182167687283939e-05 0 1.995688699246349e-05 -7.4114542986304074e-05 0 1.4813996906373871e-05 -7.9070811045682125e-05 0 9.6988084380327087e-06 -7.381465322028561e-05 0 1.3625630885881758e-05 -4.4941765300749173e-05 0 2.2148202907204485e-05 -5.0431896736088663e-05 0 1.995688699246349e-05 -7.4114542986304074e-05 0 2.3063791716709193e-05 -8.4098374144108592e-05 0 1.4813996906373871e-05 -7.9070811045682125e-05 0 2.3063791716709193e-05 -8.4098374144108592e-05 0 1.4813996906373871e-05 -7.9070811045682125e-05 0 1.2674539478490339e-05 -8.4754251783172106e-05 0 1.4813996906373871e-05 -7.9070811045682125e-05 0 7.0678552857956096e-06 -7.9499036688349291e-05 0 1.2674539478490339e-05 -8.4754251783172106e-05 0 7.0678552857956096e-06 -7.9499036688349291e-05 0 1.2674539478490339e-05 -8.4754251783172106e-05 0 2.9697701511703787e-06 -8.3969586788890666e-05 0 7.0678552857956096e-06 -7.9499036688349291e-05 0 9.6988084380327087e-06 -7.381465322028561e-05 0 1.543796818239967e-06 -7.549420703987295e-05 0 1.4813996906373871e-05 -7.9070811045682125e-05 0 7.0678552857956096e-06 -7.9499036688349291e-05 0 9.6988084380327087e-06 -7.381465322028561e-05 0 7.0678552857956096e-06 -7.9499036688349291e-05 0 1.543796818239967e-06 -7.549420703987295e-05 0 2.9697701511703787e-06 -8.3969586788890666e-05 0 1.543796818239967e-06 -7.549420703987295e-05 0 -5.6506291566749633e-06 -8.3170245208015735e-05 0 -6.0701696067104285e-06 -7.2071997148564072e-05 0 -5.6506291566749633e-06 -8.3170245208015735e-05 0 -6.0701696067104285e-06 -7.2071997148564072e-05 0 -1.322634106367364e-05 -7.4826134535458164e-05 0 1.543796818239967e-06 -7.549420703987295e-05 0 2.9697701511703787e-06 -8.3969586788890666e-05 0 -5.6506291566749633e-06 -8.3170245208015735e-05 0 1.543796818239967e-06 -7.549420703987295e-05 0 -6.0701696067104285e-06 -7.2071997148564072e-05 0 2.2020667959551169e-06 -6.627164756230085e-05 0 -6.0701696067104285e-06 -7.2071997148564072e-05 0 -6.8088741344837843e-06 -6.198662479143369e-05 0 2.2020667959551169e-06 -6.627164756230085e-05 0 -6.0701696067104285e-06 -7.2071997148564072e-05 0 -6.8088741344837843e-06 -6.198662479143369e-05 0 -1.4599237701118485e-05 -6.5869692709922655e-05 0 -6.8088741344837843e-06 -6.198662479143369e-05 0 2.2020667959551169e-06 -6.627164756230085e-05 0 -1.21688490400648e-06 -5.754829464303424e-05 0 1.0174366698964618e-05 -6.522976225094198e-05 0 2.2020667959551169e-06 -6.627164756230085e-05 0 6.3083437992517776e-06 -5.6648237993310298e-05 0 1.0174366698964618e-05 -6.522976225094198e-05 0 9.6988084380327087e-06 -7.381465322028561e-05 0 2.2020667959551169e-06 -6.627164756230085e-05 0 9.6988084380327087e-06 -7.381465322028561e-05 0 1.543796818239967e-06 -7.549420703987295e-05 0 2.2020667959551169e-06 -6.627164756230085e-05 0 -3.0103422518833072e-05 -7.4050615294866284e-05 0 -2.4622142968488467e-05 -7.7684458770310949e-05 0 -2.0884283345259709e-05 -7.2982391236457877e-05 0 -3.0103422518833072e-05 -7.4050615294866284e-05 0 -3.0124998306231686e-05 -8.2402665066041235e-05 0 -2.4622142968488467e-05 -7.7684458770310949e-05 0 -3.0124998306231686e-05 -8.2402665066041235e-05 0 -2.1880732852980216e-05 -8.2419834170025763e-05 0 -2.4622142968488467e-05 -7.7684458770310949e-05 0 -2.1880732852980216e-05 -8.2419834170025763e-05 0 -2.4622142968488467e-05 -7.7684458770310949e-05 0 -1.7835787064010131e-05 -7.8197708438369353e-05 0 -2.4622142968488467e-05 -7.7684458770310949e-05 0 -2.0884283345259709e-05 -7.2982391236457877e-05 0 -1.7835787064010131e-05 -7.8197708438369353e-05 0 -2.0884283345259709e-05 -7.2982391236457877e-05 0 -1.7835787064010131e-05 -7.8197708438369353e-05 0 -1.322634106367364e-05 -7.4826134535458164e-05 0 -1.7835787064010131e-05 -7.8197708438369353e-05 0 -1.3706695009372108e-05 -8.2662868324720994e-05 0 -1.322634106367364e-05 -7.4826134535458164e-05 0 -2.1880732852980216e-05 -8.2419834170025763e-05 0 -1.7835787064010131e-05 -7.8197708438369353e-05 0 -1.3706695009372108e-05 -8.2662868324720994e-05 0 -5.6506291566749633e-06 -8.3170245208015735e-05 0 -1.3706695009372108e-05 -8.2662868324720994e-05 0 -1.322634106367364e-05 -7.4826134535458164e-05 0 -6.0701696067104285e-06 -7.2071997148564072e-05 0 -1.322634106367364e-05 -7.4826134535458164e-05 0 -1.4599237701118485e-05 -6.5869692709922655e-05 0 -6.8088741344837843e-06 -6.198662479143369e-05 0 -1.4599237701118485e-05 -6.5869692709922655e-05 0 -1.2584080039004357e-05 -5.6079552375018945e-05 0 -1.4599237701118485e-05 -6.5869692709922655e-05 0 -2.245200712782189e-05 -6.5402650440799889e-05 0 -1.9776304479782307e-05 -5.7534802534676594e-05 0 -2.0884283345259709e-05 -7.2982391236457877e-05 0 -1.322634106367364e-05 -7.4826134535458164e-05 0 -1.4599237701118485e-05 -6.5869692709922655e-05 0 -2.0884283345259709e-05 -7.2982391236457877e-05 0 -1.4599237701118485e-05 -6.5869692709922655e-05 0 -2.245200712782189e-05 -6.5402650440799889e-05 0 -3.0103422518833072e-05 -7.4050615294866284e-05 0 -2.0884283345259709e-05 -7.2982391236457877e-05 0 -2.245200712782189e-05 -6.5402650440799889e-05 0 -2.245200712782189e-05 -6.5402650440799889e-05 0 -2.9878882918826867e-05 -6.5515761280692645e-05 0 -2.937652761261174e-05 -5.6900607572562283e-05 0 -3.0103422518833072e-05 -7.4050615294866284e-05 0 -2.245200712782189e-05 -6.5402650440799889e-05 0 -2.9878882918826867e-05 -6.5515761280692645e-05 0 -2.937652761261174e-05 -5.6900607572562283e-05 0 -2.314878280434774e-05 -5.1419010274869799e-05 0 -2.8485687475862569e-05 -4.8564911042719155e-05 0 -2.245200712782189e-05 -6.5402650440799889e-05 0 -2.937652761261174e-05 -5.6900607572562283e-05 0 -1.9776304479782307e-05 -5.7534802534676594e-05 0 -1.9776304479782307e-05 -5.7534802534676594e-05 0 -2.314878280434774e-05 -5.1419010274869799e-05 0 -1.7105783858797735e-05 -4.8406006019821601e-05 0 -2.937652761261174e-05 -5.6900607572562283e-05 0 -1.9776304479782307e-05 -5.7534802534676594e-05 0 -2.314878280434774e-05 -5.1419010274869799e-05 0 -1.9776304479782307e-05 -5.7534802534676594e-05 0 -1.2584080039004357e-05 -5.6079552375018945e-05 0 -1.7105783858797735e-05 -4.8406006019821601e-05 0 -1.4599237701118485e-05 -6.5869692709922655e-05 0 -1.9776304479782307e-05 -5.7534802534676594e-05 0 -1.2584080039004357e-05 -5.6079552375018945e-05 0 -1.2584080039004357e-05 -5.6079552375018945e-05 0 -1.1255526952315272e-05 -4.8097241241660502e-05 0 -1.7105783858797735e-05 -4.8406006019821601e-05 0 -1.2584080039004357e-05 -5.6079552375018945e-05 0 -1.1255526952315272e-05 -4.8097241241660502e-05 0 -6.4965111987828208e-06 -5.249433659401962e-05 0 -1.1255526952315272e-05 -4.8097241241660502e-05 0 -1.3550365687403853e-05 -4.2911081711933562e-05 0 -1.7105783858797735e-05 -4.8406006019821601e-05 0 -1.3550365687403853e-05 -4.2911081711933562e-05 0 -7.3627746619450926e-06 -4.3113721231365584e-05 0 -1.2285555112340143e-05 -3.5979484475277762e-05 0 -1.1255526952315272e-05 -4.8097241241660502e-05 0 -1.3550365687403853e-05 -4.2911081711933562e-05 0 -7.3627746619450926e-06 -4.3113721231365584e-05 0 -1.3550365687403853e-05 -4.2911081711933562e-05 0 -1.7105783858797735e-05 -4.8406006019821601e-05 0 -1.9424665850618988e-05 -4.0547411836426402e-05 0 -2.314878280434774e-05 -5.1419010274869799e-05 0 -1.7105783858797735e-05 -4.8406006019821601e-05 0 -2.3143097066895962e-05 -4.5714069000858727e-05 0 -1.7105783858797735e-05 -4.8406006019821601e-05 0 -2.3143097066895962e-05 -4.5714069000858727e-05 0 -1.9424665850618988e-05 -4.0547411836426402e-05 0 -2.3143097066895962e-05 -4.5714069000858727e-05 0 -1.9424665850618988e-05 -4.0547411836426402e-05 0 -2.7176707183349947e-05 -4.0539419609603465e-05 0 -2.3143097066895962e-05 -4.5714069000858727e-05 0 -2.8485687475862569e-05 -4.8564911042719155e-05 0 -2.7176707183349947e-05 -4.0539419609603465e-05 0 -2.314878280434774e-05 -5.1419010274869799e-05 0 -2.3143097066895962e-05 -4.5714069000858727e-05 0 -2.8485687475862569e-05 -4.8564911042719155e-05 0 -1.0786039867612704e-06 -4.9959034218649785e-05 0 6.3083437992517776e-06 -5.6648237993310298e-05 0 4.2359322384355306e-06 -4.7090871295694893e-05 0 -1.0786039867612704e-06 -4.9959034218649785e-05 0 6.3083437992517776e-06 -5.6648237993310298e-05 0 -1.21688490400648e-06 -5.754829464303424e-05 0 9.8774652720765617e-06 -4.9926359714841155e-05 0 6.3083437992517776e-06 -5.6648237993310298e-05 0 4.2359322384355306e-06 -4.7090871295694893e-05 0 2.2020667959551169e-06 -6.627164756230085e-05 0 6.3083437992517776e-06 -5.6648237993310298e-05 0 -1.21688490400648e-06 -5.754829464303424e-05 0 -6.8088741344837843e-06 -6.198662479143369e-05 0 -1.21688490400648e-06 -5.754829464303424e-05 0 -6.4965111987828208e-06 -5.249433659401962e-05 0 -6.8088741344837843e-06 -6.198662479143369e-05 0 -1.2584080039004357e-05 -5.6079552375018945e-05 0 -6.4965111987828208e-06 -5.249433659401962e-05 0 -1.0786039867612704e-06 -4.9959034218649785e-05 0 -1.21688490400648e-06 -5.754829464303424e-05 0 -6.4965111987828208e-06 -5.249433659401962e-05 0 -1.0786039867612704e-06 -4.9959034218649785e-05 0 -7.3627746619450926e-06 -4.3113721231365584e-05 0 -1.23996682032283e-06 -4.209479068096329e-05 0 -1.0786039867612704e-06 -4.9959034218649785e-05 0 -6.4965111987828208e-06 -5.249433659401962e-05 0 -7.3627746619450926e-06 -4.3113721231365584e-05 0 -1.1255526952315272e-05 -4.8097241241660502e-05 0 -6.4965111987828208e-06 -5.249433659401962e-05 0 -7.3627746619450926e-06 -4.3113721231365584e-05 0 -7.3627746619450926e-06 -4.3113721231365584e-05 0 -1.23996682032283e-06 -4.209479068096329e-05 0 -4.9496299281369959e-06 -3.5936717563586528e-05 0 -1.23996682032283e-06 -4.209479068096329e-05 0 4.2359322384355306e-06 -4.7090871295694893e-05 0 3.4417263956760798e-06 -4.0517556670317656e-05 0 -1.0786039867612704e-06 -4.9959034218649785e-05 0 -1.23996682032283e-06 -4.209479068096329e-05 0 4.2359322384355306e-06 -4.7090871295694893e-05 0 8.4237472852410341e-06 -4.2595689470508689e-05 0 9.8774652720765617e-06 -4.9926359714841155e-05 0 4.2359322384355306e-06 -4.7090871295694893e-05 0 8.4237472852410341e-06 -4.2595689470508689e-05 0 4.2359322384355306e-06 -4.7090871295694893e-05 0 3.4417263956760798e-06 -4.0517556670317656e-05 0 8.4237472852410341e-06 -4.2595689470508689e-05 0 3.4417263956760798e-06 -4.0517556670317656e-05 0 6.2734320653284503e-06 -3.5499442762372657e-05 0 3.4417263956760798e-06 -4.0517556670317656e-05 0 6.2734320653284503e-06 -3.5499442762372657e-05 0 -3.5971674704695109e-07 -3.565514298723413e-05 0 6.2734320653284503e-06 -3.5499442762372657e-05 0 2.6021834182294519e-06 -3.0983106913632662e-05 0 -3.5971674704695109e-07 -3.565514298723413e-05 0 6.2734320653284503e-06 -3.5499442762372657e-05 0 2.6021834182294519e-06 -3.0983106913632662e-05 0 6.5432511442617606e-06 -2.8802255346725158e-05 0 2.6021834182294519e-06 -3.0983106913632662e-05 0 -3.5971674704695109e-07 -3.565514298723413e-05 0 -1.6713597883571479e-06 -2.9974676532051041e-05 0 -1.23996682032283e-06 -4.209479068096329e-05 0 3.4417263956760798e-06 -4.0517556670317656e-05 0 -3.5971674704695109e-07 -3.565514298723413e-05 0 -1.23996682032283e-06 -4.209479068096329e-05 0 -3.5971674704695109e-07 -3.565514298723413e-05 0 -4.9496299281369959e-06 -3.5936717563586528e-05 0 -7.3627746619450926e-06 -4.3113721231365584e-05 0 -4.9496299281369959e-06 -3.5936717563586528e-05 0 -1.2285555112340143e-05 -3.5979484475277762e-05 0 -4.9496299281369959e-06 -3.5936717563586528e-05 0 -6.887531211713164e-06 -2.9690183553998263e-05 0 -1.2285555112340143e-05 -3.5979484475277762e-05 0 -3.5971674704695109e-07 -3.565514298723413e-05 0 -4.9496299281369959e-06 -3.5936717563586528e-05 0 -1.6713597883571479e-06 -2.9974676532051041e-05 0 -4.9496299281369959e-06 -3.5936717563586528e-05 0 -6.887531211713164e-06 -2.9690183553998263e-05 0 -1.6713597883571479e-06 -2.9974676532051041e-05 0 -6.887531211713164e-06 -2.9690183553998263e-05 0 -2.047212290388257e-06 -2.3593564560593556e-05 0 -1.6713597883571479e-06 -2.9974676532051041e-05 0 -6.887531211713164e-06 -2.9690183553998263e-05 0 -1.0108509198387415e-05 -2.5634563935522966e-05 0 -6.18787260658338e-06 -2.1628115344385509e-05 0 -6.887531211713164e-06 -2.9690183553998263e-05 0 -2.047212290388257e-06 -2.3593564560593556e-05 0 -6.18787260658338e-06 -2.1628115344385509e-05 0 -2.047212290388257e-06 -2.3593564560593556e-05 0 2.2743335623182853e-06 -2.5377842165975609e-05 0 2.1061583316652029e-06 -1.8231218557919269e-05 0 2.2743335623182853e-06 -2.5377842165975609e-05 0 2.1061583316652029e-06 -1.8231218557919269e-05 0 5.9942831207301002e-06 -2.1792045800783516e-05 0 2.6021834182294519e-06 -3.0983106913632662e-05 0 2.2743335623182853e-06 -2.5377842165975609e-05 0 6.5432511442617606e-06 -2.8802255346725158e-05 0 -2.047212290388257e-06 -2.3593564560593556e-05 0 2.2743335623182853e-06 -2.5377842165975609e-05 0 -1.6713597883571479e-06 -2.9974676532051041e-05 0 2.6021834182294519e-06 -3.0983106913632662e-05 0 2.2743335623182853e-06 -2.5377842165975609e-05 0 -1.6713597883571479e-06 -2.9974676532051041e-05 0 -2.5485564487723513e-05 -3.3105573907328259e-05 0 -2.2479274794115722e-05 -3.6755502605577996e-05 0 -1.7896254580568563e-05 -3.2695337151377791e-05 0 -2.5485564487723513e-05 -3.3105573907328259e-05 0 -1.7896254580568563e-05 -3.2695337151377791e-05 0 -1.9527655802867341e-05 -2.7698674377453692e-05 0 -1.9424665850618988e-05 -4.0547411836426402e-05 0 -2.7176707183349947e-05 -4.0539419609603465e-05 0 -2.2479274794115722e-05 -3.6755502605577996e-05 0 -2.5485564487723513e-05 -3.3105573907328259e-05 0 -2.7176707183349947e-05 -4.0539419609603465e-05 0 -2.2479274794115722e-05 -3.6755502605577996e-05 0 -1.9424665850618988e-05 -4.0547411836426402e-05 0 -2.2479274794115722e-05 -3.6755502605577996e-05 0 -1.7896254580568563e-05 -3.2695337151377791e-05 0 -1.7896254580568563e-05 -3.2695337151377791e-05 0 -1.2285555112340143e-05 -3.5979484475277762e-05 0 -1.2119078731650614e-05 -2.9881617380975974e-05 0 -1.9424665850618988e-05 -4.0547411836426402e-05 0 -1.7896254580568563e-05 -3.2695337151377791e-05 0 -1.2285555112340143e-05 -3.5979484475277762e-05 0 -1.3550365687403853e-05 -4.2911081711933562e-05 0 -1.9424665850618988e-05 -4.0547411836426402e-05 0 -1.2285555112340143e-05 -3.5979484475277762e-05 0 -6.887531211713164e-06 -2.9690183553998263e-05 0 -1.2285555112340143e-05 -3.5979484475277762e-05 0 -1.2119078731650614e-05 -2.9881617380975974e-05 0 -1.2119078731650614e-05 -2.9881617380975974e-05 0 -1.0108509198387415e-05 -2.5634563935522966e-05 0 -1.4751599050414054e-05 -2.6047900496049126e-05 0 -6.887531211713164e-06 -2.9690183553998263e-05 0 -1.2119078731650614e-05 -2.9881617380975974e-05 0 -1.0108509198387415e-05 -2.5634563935522966e-05 0 -1.0108509198387415e-05 -2.5634563935522966e-05 0 -1.0728571224095563e-05 -2.1451445783980932e-05 0 -6.18787260658338e-06 -2.1628115344385509e-05 0 -1.0108509198387415e-05 -2.5634563935522966e-05 0 -1.4751599050414054e-05 -2.6047900496049126e-05 0 -1.0728571224095563e-05 -2.1451445783980932e-05 0 -1.4751599050414054e-05 -2.6047900496049126e-05 0 -1.6852827116183867e-05 -2.1936787283530538e-05 0 -1.0728571224095563e-05 -2.1451445783980932e-05 0 -1.7896254580568563e-05 -3.2695337151377791e-05 0 -1.2119078731650614e-05 -2.9881617380975974e-05 0 -1.4751599050414054e-05 -2.6047900496049126e-05 0 -1.7896254580568563e-05 -3.2695337151377791e-05 0 -1.4751599050414054e-05 -2.6047900496049126e-05 0 -1.9527655802867341e-05 -2.7698674377453692e-05 0 -1.4751599050414054e-05 -2.6047900496049126e-05 0 -1.9527655802867341e-05 -2.7698674377453692e-05 0 -1.6852827116183867e-05 -2.1936787283530538e-05 0 -1.9527655802867341e-05 -2.7698674377453692e-05 0 -2.355065852460561e-05 -2.6331864731058686e-05 0 -1.6852827116183867e-05 -2.1936787283530538e-05 0 -2.5485564487723513e-05 -3.3105573907328259e-05 0 -1.9527655802867341e-05 -2.7698674377453692e-05 0 -2.355065852460561e-05 -2.6331864731058686e-05 0 -2.1419227554978695e-05 -2.0298019016366835e-05 0 -1.6438121744023148e-05 -1.6939488436736154e-05 0 -1.896618022430723e-05 -1.5063539043799188e-05 0 -2.355065852460561e-05 -2.6331864731058686e-05 0 -2.1419227554978695e-05 -2.0298019016366835e-05 0 -1.6852827116183867e-05 -2.1936787283530538e-05 0 -2.1419227554978695e-05 -2.0298019016366835e-05 0 -1.6852827116183867e-05 -2.1936787283530538e-05 0 -1.6438121744023148e-05 -1.6939488436736154e-05 0 -1.6852827116183867e-05 -2.1936787283530538e-05 0 -1.6438121744023148e-05 -1.6939488436736154e-05 0 -1.2467008108403705e-05 -1.6736151941576173e-05 0 -1.6852827116183867e-05 -2.1936787283530538e-05 0 -1.2467008108403705e-05 -1.6736151941576173e-05 0 -1.0728571224095563e-05 -2.1451445783980932e-05 0 -1.0728571224095563e-05 -2.1451445783980932e-05 0 -8.9955465003760092e-06 -1.7363836111916817e-05 0 -6.18787260658338e-06 -2.1628115344385509e-05 0 -1.2467008108403705e-05 -1.6736151941576173e-05 0 -1.0728571224095563e-05 -2.1451445783980932e-05 0 -8.9955465003760092e-06 -1.7363836111916817e-05 0 -8.9955465003760092e-06 -1.7363836111916817e-05 0 -9.3594292788759365e-06 -1.3786311310892253e-05 0 -5.6361880453382254e-06 -1.4542708113252405e-05 0 -1.2467008108403705e-05 -1.6736151941576173e-05 0 -8.9955465003760092e-06 -1.7363836111916817e-05 0 -9.3594292788759365e-06 -1.3786311310892253e-05 0 -9.3594292788759365e-06 -1.3786311310892253e-05 0 -7.4635836442674222e-06 -1.0065501065020698e-05 0 -1.2683705206768875e-05 -1.1798909415851992e-05 0 -8.7843213423747803e-06 -7.8956656843005528e-06 0 -7.4635836442674222e-06 -1.0065501065020698e-05 0 -1.2683705206768875e-05 -1.1798909415851992e-05 0 -1.2467008108403705e-05 -1.6736151941576173e-05 0 -9.3594292788759365e-06 -1.3786311310892253e-05 0 -1.2683705206768875e-05 -1.1798909415851992e-05 0 -1.6438121744023148e-05 -1.6939488436736154e-05 0 -1.2683705206768875e-05 -1.1798909415851992e-05 0 -1.896618022430723e-05 -1.5063539043799188e-05 0 -1.6438121744023148e-05 -1.6939488436736154e-05 0 -1.2467008108403705e-05 -1.6736151941576173e-05 0 -1.2683705206768875e-05 -1.1798909415851992e-05 0 -1.6629515792983028e-05 -1.0705279577398125e-05 0 -1.2683705206768875e-05 -1.1798909415851992e-05 0 -1.896618022430723e-05 -1.5063539043799188e-05 0 2.1061583316652029e-06 -1.8231218557919269e-05 0 -2.6313803297399934e-06 -1.7995727712606696e-05 0 -1.2529573343430593e-06 -1.3236566211284008e-05 0 2.1061583316652029e-06 -1.8231218557919269e-05 0 -1.2529573343430593e-06 -1.3236566211284008e-05 0 2.4813693092438892e-06 -1.1800773688252933e-05 0 -2.047212290388257e-06 -2.3593564560593556e-05 0 2.1061583316652029e-06 -1.8231218557919269e-05 0 -2.6313803297399934e-06 -1.7995727712606696e-05 0 -2.047212290388257e-06 -2.3593564560593556e-05 0 -2.6313803297399934e-06 -1.7995727712606696e-05 0 -6.18787260658338e-06 -2.1628115344385509e-05 0 -8.9955465003760092e-06 -1.7363836111916817e-05 0 -6.18787260658338e-06 -2.1628115344385509e-05 0 -5.6361880453382254e-06 -1.4542708113252405e-05 0 -2.6313803297399934e-06 -1.7995727712606696e-05 0 -6.18787260658338e-06 -2.1628115344385509e-05 0 -5.6361880453382254e-06 -1.4542708113252405e-05 0 -2.6313803297399934e-06 -1.7995727712606696e-05 0 -5.6361880453382254e-06 -1.4542708113252405e-05 0 -1.2529573343430593e-06 -1.3236566211284008e-05 0 -5.6361880453382254e-06 -1.4542708113252405e-05 0 -3.8810248119045889e-06 -1.0152813042444187e-05 0 -1.2529573343430593e-06 -1.3236566211284008e-05 0 -9.3594292788759365e-06 -1.3786311310892253e-05 0 -7.4635836442674222e-06 -1.0065501065020698e-05 0 -5.6361880453382254e-06 -1.4542708113252405e-05 0 -5.485087805483095e-06 -7.8817222215642742e-06 0 -7.4635836442674222e-06 -1.0065501065020698e-05 0 -3.8810248119045889e-06 -1.0152813042444187e-05 0 -7.4635836442674222e-06 -1.0065501065020698e-05 0 -5.6361880453382254e-06 -1.4542708113252405e-05 0 -3.8810248119045889e-06 -1.0152813042444187e-05 0 -3.8810248119045889e-06 -1.0152813042444187e-05 0 -1.0825814492739831e-06 -8.9370959715542148e-06 0 -1.2529573343430593e-06 -1.3236566211284008e-05 0 -1.0825814492739831e-06 -8.9370959715542148e-06 0 -1.2529573343430593e-06 -1.3236566211284008e-05 0 2.4813693092438892e-06 -1.1800773688252933e-05 0 1.6600615269533593e-06 -7.5318360141204794e-06 0 -1.0825814492739831e-06 -8.9370959715542148e-06 0 2.4813693092438892e-06 -1.1800773688252933e-05 0 1.6600615269533593e-06 -7.5318360141204794e-06 0 3.9182952302692033e-06 -6.6334407921112964e-06 0 2.4813693092438892e-06 -1.1800773688252933e-05 0 3.9182952302692033e-06 -6.6334407921112964e-06 0 2.7985372238135929e-06 -6.2037754857560088e-06 0 3.1442449125394446e-06 -5.6698948329479277e-06 0 3.9182952302692033e-06 -6.6334407921112964e-06 0 6.8002755392440973e-06 -1.3015451149596862e-05 0 2.4813693092438892e-06 -1.1800773688252933e-05 0 3.6452664422196654e-06 -6.557895051461762e-06 0 4.9285711643194929e-06 -9.680858718125999e-06 0 6.8002755392440973e-06 -1.3015451149596862e-05 0 2.4813693092438892e-06 -1.1800773688252933e-05 0 5.2966037863582765e-06 -1.609617397737213e-05 0 2.1061583316652029e-06 -1.8231218557919269e-05 0 2.4813693092438892e-06 -1.1800773688252933e-05 0 5.2966037863582765e-06 -1.609617397737213e-05 0 4.9285711643194929e-06 -9.680858718125999e-06 0 5.6984943815327714e-06 -1.3245146721262951e-05 0 6.8002755392440973e-06 -1.3015451149596862e-05 0 5.2966037863582765e-06 -1.609617397737213e-05 0 8.9694414762813117e-06 -1.8584024826011767e-05 0 5.6984943815327714e-06 -1.3245146721262951e-05 0 6.6015984578518232e-06 -1.7436138601049854e-05 0 5.2966037863582765e-06 -1.609617397737213e-05 0 8.9694414762813117e-06 -1.8584024826011767e-05 0 5.9942831207301002e-06 -2.1792045800783516e-05 0 2.1061583316652029e-06 -1.8231218557919269e-05 0 5.2966037863582765e-06 -1.609617397737213e-05 0 5.9942831207301002e-06 -2.1792045800783516e-05 0 3.3907116699033088e-06 -8.4576914084583173e-06 0 3.4629545949234061e-06 -6.4457763994962324e-06 0 4.1475381683501152e-06 -7.8778612527555661e-06 0 2.4690658125216146e-06 -7.9449423560519636e-06 0 3.3907116699033088e-06 -8.4576914084583173e-06 0 2.503583536335113e-06 -1.0085129659891763e-05 0 2.4690658125216146e-06 -7.9449423560519636e-06 0 3.3907116699033088e-06 -8.4576914084583173e-06 0 3.4629545949234061e-06 -6.4457763994962324e-06 0 2.7985372238135929e-06 -6.2037754857560088e-06 0 2.4690658125216146e-06 -7.9449423560519636e-06 0 3.4629545949234061e-06 -6.4457763994962324e-06 0 3.4629545949234061e-06 -6.4457763994962324e-06 0 3.1442449125394446e-06 -5.6698948329479277e-06 0 3.8156851966871248e-06 -4.9350039811530666e-06 0 2.7985372238135929e-06 -6.2037754857560088e-06 0 3.4629545949234061e-06 -6.4457763994962324e-06 0 3.1442449125394446e-06 -5.6698948329479277e-06 0 3.3481806330640742e-06 -4.8862790137470942e-06 0 3.9182952302692033e-06 -6.6334407921112964e-06 0 3.1442449125394446e-06 -5.6698948329479277e-06 0 3.3481806330640742e-06 -4.8862790137470942e-06 0 3.1442449125394446e-06 -5.6698948329479277e-06 0 3.8156851966871248e-06 -4.9350039811530666e-06 0 3.4629545949234061e-06 -6.4457763994962324e-06 0 3.8156851966871248e-06 -4.9350039811530666e-06 0 4.4876111703548319e-06 -6.5748844519422936e-06 0 3.8156851966871248e-06 -4.9350039811530666e-06 0 4.9553781336614948e-06 -4.8040343061827268e-06 0 4.4876111703548319e-06 -6.5748844519422936e-06 0 4.5000630770184112e-06 -3.2387658198038389e-06 0 3.8156851966871248e-06 -4.9350039811530666e-06 0 4.9553781336614948e-06 -4.8040343061827268e-06 0 5.3698017583070059e-06 -2.4334507272521157e-06 0 5.862542146585506e-06 -4.0434366593493505e-06 0 4.9553781336614948e-06 -4.8040343061827268e-06 0 5.3698017583070059e-06 -2.4334507272521157e-06 0 4.5000630770184112e-06 -3.2387658198038389e-06 0 4.9553781336614948e-06 -4.8040343061827268e-06 0 5.862542146585506e-06 -4.0434366593493505e-06 0 6.0930488040396618e-06 -6.2863599996529497e-06 0 4.9553781336614948e-06 -4.8040343061827268e-06 0 6.0930488040396618e-06 -6.2863599996529497e-06 0 5.3935458574836854e-06 -6.5681310014300665e-06 0 6.2643012239795802e-06 -8.2579561021635364e-06 0 6.0930488040396618e-06 -6.2863599996529497e-06 0 4.9553781336614948e-06 -4.8040343061827268e-06 0 5.3935458574836854e-06 -6.5681310014300665e-06 0 5.3935458574836854e-06 -6.5681310014300665e-06 0 5.4393693020069378e-06 -8.0385117528694222e-06 0 4.4876111703548319e-06 -6.5748844519422936e-06 0 4.9553781336614948e-06 -4.8040343061827268e-06 0 5.3935458574836854e-06 -6.5681310014300665e-06 0 4.4876111703548319e-06 -6.5748844519422936e-06 0 5.3935458574836854e-06 -6.5681310014300665e-06 0 5.4393693020069378e-06 -8.0385117528694222e-06 0 6.2643012239795802e-06 -8.2579561021635364e-06 0 3.4629545949234061e-06 -6.4457763994962324e-06 0 4.4876111703548319e-06 -6.5748844519422936e-06 0 4.1475381683501152e-06 -7.8778612527555661e-06 0 5.4393693020069378e-06 -8.0385117528694222e-06 0 4.4876111703548319e-06 -6.5748844519422936e-06 0 5.0276719444267767e-06 -9.162635265728066e-06 0 4.4876111703548319e-06 -6.5748844519422936e-06 0 4.1475381683501152e-06 -7.8778612527555661e-06 0 5.0276719444267767e-06 -9.162635265728066e-06 0 4.1475381683501152e-06 -7.8778612527555661e-06 0 5.0276719444267767e-06 -9.162635265728066e-06 0 4.0572421581660605e-06 -9.8903005376042078e-06 0 5.0276719444267767e-06 -9.162635265728066e-06 0 6.1758066503781278e-06 -9.8075366756395343e-06 0 5.9744113925518705e-06 -1.1243287533495661e-05 0 5.0276719444267767e-06 -9.162635265728066e-06 0 4.9468630713246622e-06 -1.0935508074153812e-05 0 5.9744113925518705e-06 -1.1243287533495661e-05 0 5.0276719444267767e-06 -9.162635265728066e-06 0 4.9468630713246622e-06 -1.0935508074153812e-05 0 4.0572421581660605e-06 -9.8903005376042078e-06 0 6.2643012239795802e-06 -8.2579561021635364e-06 0 7.1673555694855577e-06 -1.0106001548576415e-05 0 6.1758066503781278e-06 -9.8075366756395343e-06 0 5.4393693020069378e-06 -8.0385117528694222e-06 0 6.2643012239795802e-06 -8.2579561021635364e-06 0 6.1758066503781278e-06 -9.8075366756395343e-06 0 5.4393693020069378e-06 -8.0385117528694222e-06 0 5.0276719444267767e-06 -9.162635265728066e-06 0 6.1758066503781278e-06 -9.8075366756395343e-06 0 6.1758066503781278e-06 -9.8075366756395343e-06 0 7.3214118611447e-06 -1.1713167100264697e-05 0 5.9744113925518705e-06 -1.1243287533495661e-05 0 7.1673555694855577e-06 -1.0106001548576415e-05 0 6.1758066503781278e-06 -9.8075366756395343e-06 0 7.3214118611447e-06 -1.1713167100264697e-05 0 8.7943497999856157e-06 -1.2837404298740478e-05 0 7.3214118611447e-06 -1.1713167100264697e-05 0 8.1040101059205973e-06 -1.3404732362303993e-05 0 7.3214118611447e-06 -1.1713167100264697e-05 0 6.9268585164622627e-06 -1.3052678102904426e-05 0 5.9744113925518705e-06 -1.1243287533495661e-05 0 7.3214118611447e-06 -1.1713167100264697e-05 0 6.9268585164622627e-06 -1.3052678102904426e-05 0 8.1040101059205973e-06 -1.3404732362303993e-05 0 4.9468630713246622e-06 -1.0935508074153812e-05 0 5.772091514333485e-06 -1.267287566742221e-05 0 4.8338303062717847e-06 -1.2317713542980882e-05 0 6.9268585164622627e-06 -1.3052678102904426e-05 0 5.9744113925518705e-06 -1.1243287533495661e-05 0 5.772091514333485e-06 -1.267287566742221e-05 0 4.9468630713246622e-06 -1.0935508074153812e-05 0 5.9744113925518705e-06 -1.1243287533495661e-05 0 5.772091514333485e-06 -1.267287566742221e-05 0 6.3055682257964012e-06 -1.4236829192900314e-05 0 6.9268585164622627e-06 -1.3052678102904426e-05 0 5.772091514333485e-06 -1.267287566742221e-05 0 5.772091514333485e-06 -1.267287566742221e-05 0 5.3320928710032732e-06 -1.3459605186093356e-05 0 4.8338303062717847e-06 -1.2317713542980882e-05 0 6.3055682257964012e-06 -1.4236829192900314e-05 0 5.772091514333485e-06 -1.267287566742221e-05 0 5.3320928710032732e-06 -1.3459605186093356e-05 0 5.3320928710032732e-06 -1.3459605186093356e-05 0 4.8338303062717847e-06 -1.2317713542980882e-05 0 4.3356173645315423e-06 -1.3090692058041157e-05 0 4.8338303062717847e-06 -1.2317713542980882e-05 0 3.8531146385592861e-06 -1.1432029170565531e-05 0 4.3356173645315423e-06 -1.3090692058041157e-05 0 4.9468630713246622e-06 -1.0935508074153812e-05 0 4.8338303062717847e-06 -1.2317713542980882e-05 0 3.8531146385592861e-06 -1.1432029170565531e-05 0 3.8531146385592861e-06 -1.1432029170565531e-05 0 4.3356173645315423e-06 -1.3090692058041157e-05 0 2.9216948924084571e-06 -1.2296859820713701e-05 0 6.2734320653284503e-06 -3.5499442762372657e-05 0 1.3663429341969862e-05 -3.8876168852012625e-05 0 1.2248258139686701e-05 -3.1510559533918894e-05 0 8.6303523136121767e-06 -2.6558965435104991e-05 0 7.5633642621912182e-06 -2.191283179285534e-05 0 4.3356173645315423e-06 -1.3090692058041157e-05 0 3.6918206499411389e-06 -1.4247663091733366e-05 0 2.9216948924084571e-06 -1.2296859820713701e-05 0 8.4237472852410341e-06 -4.2595689470508689e-05 0 6.2734320653284503e-06 -3.5499442762372657e-05 0 1.3663429341969862e-05 -3.8876168852012625e-05 0 6.2734320653284503e-06 -3.5499442762372657e-05 0 1.2248258139686701e-05 -3.1510559533918894e-05 0 6.5432511442617606e-06 -2.8802255346725158e-05 0 1.2248258139686701e-05 -3.1510559533918894e-05 0 6.5432511442617606e-06 -2.8802255346725158e-05 0 1.0697308177073431e-05 -2.4752644362352277e-05 0 3.8531146385592861e-06 -1.1432029170565531e-05 0 2.9216948924084571e-06 -1.2296859820713701e-05 0 2.503583536335113e-06 -1.0085129659891763e-05 0 7.5633642621912182e-06 -2.191283179285534e-05 0 6.6015984578518232e-06 -1.7436138601049854e-05 0 6.5432511442617606e-06 -2.8802255346725158e-05 0 5.9942831207301002e-06 -2.1792045800783516e-05 0 1.0697308177073431e-05 -2.4752644362352277e-05 0 2.2743335623182853e-06 -2.5377842165975609e-05 0 6.5432511442617606e-06 -2.8802255346725158e-05 0 5.9942831207301002e-06 -2.1792045800783516e-05 0 8.9694414762813117e-06 -1.8584024826011767e-05 0 5.9942831207301002e-06 -2.1792045800783516e-05 0 1.0697308177073431e-05 -2.4752644362352277e-05 0 3.3907116699033088e-06 -8.4576914084583173e-06 0 2.503583536335113e-06 -1.0085129659891763e-05 0 4.0572421581660605e-06 -9.8903005376042078e-06 0 3.3907116699033088e-06 -8.4576914084583173e-06 0 4.1475381683501152e-06 -7.8778612527555661e-06 0 4.0572421581660605e-06 -9.8903005376042078e-06 0 4.9468630713246622e-06 -1.0935508074153812e-05 0 3.8531146385592861e-06 -1.1432029170565531e-05 0 4.0572421581660605e-06 -9.8903005376042078e-06 0 3.8531146385592861e-06 -1.1432029170565531e-05 0 2.503583536335113e-06 -1.0085129659891763e-05 0 4.0572421581660605e-06 -9.8903005376042078e-06 0 
</DataArray>
</PointData>
<CellData Scalars="region_id,von_mises_stress,cross_section_updated,displacement_divergence," Vectors="" Tensors="stress,">
<DataArray type="Float64" Name="region_id" format="ascii">
1 1 1 1 1 1 1 1 1 1 1 1 1 1 1 1 1 1 1 1 1 1 1 1 1 1 1 1 1 1 1 1 1 1 1 1 1 1 1 1 1 1 1 1 1 1 1 1 1 1 1 1 1 1 1 1 1 1 1 1 1 1 1 1 1 1 1 1 1 1 1 1 1 1 1 1 1 1 1 1 1 1 1 1 1 1 1 1 1 1 1 1 1 1 1 1 1 1 1 1 1 1 1 1 1 1 1 1 1 1 1 1 1 1 1 1 1 1 1 1 1 1 1 1 1 1 1 1 1 1 1 1 1 1 1 1 1 1 1 1 1 1 1 1 1 1 1 1 1 1 1 1 1 1 1 1 1 1 1 1 1 1 1 1 1 1 1 1 1 1 1 1 1 1 1 1 1 1 1 1 1 1 1 1 1 1 1 1 1 1 1 1 1 1 1 1 1 1 1 1 1 1 1 1 1 1 1 1 1 1 1 1 1 1 1 1 1 1 1 1 1 1 1 1 1 1 1 1 1 1 1 1 1 1 1 1 1 1 1 1 1 1 1 1 1 1 1 1 1 1 1 1 1 1 1 1 1 1 1 1 1 1 1 1 1 1 1 1 1 1 1 1 1 1 1 1 1 1 1 1 1 1 1 1 1 1 1 1 1 1 1 1 1 1 1 1 1 1 1 1 1 1 1 1 1 1 1 1 1 1 1 1 1 1 1 1 1 1 1 1 1 1 1 1 1 1 1 1 1 1 1 1 1 1 1 1 1 1 1 1 1 1 1 1 1 1 1 1 1 1 1 1 1 1 1 1 1 1 1 1 1 1 1 1 1 1 1 1 1 1 1 1 1 1 1 1 1 1 1 1 1 1 1 1 1 1 1 1 1 1 1 1 1 1 1 1 1 1 1 1 1 1 1 1 1 1 1 1 1 1 1 1 1 1 1 1 1 1 1 1 1 1 1 1 1 1 1 1 1 1 1 1 1 1 1 1 1 1 1 1 1 1 1 1 1 1 1 1 1 1 1 1 1 1 1 1 1 1 1 1 1 1 1 1 1 1 1 1 1 1 1 1 1 1 1 1 1 1 1 1 1 1 1 1 1 1 1 1 1 1 1 1 1 1 1 1 1 1 1 1 1 1 1 1 1 1 1 1 1 1 1 1 1 1 1 1 1 1 1 1 1 1 1 1 1 1 1 1 1 1 1 1 1 1 1 1 1 1 3 1 1 3 1 1 3 1 1 1 1 1 1 1 1 1 1 1 1 1 3 1 1 1 1 1 3 1 1 1 1 1 1 1 1 1 1 1 1 1 1 1 1 1 1 1 1 1 1 1 1 1 1 1 1 1 1 1 1 1 1 1 1 1 1 1 1 1 1 1 1 1 1 1 1 1 1 1 1 1 1 1 1 1 1 1 1 1 1 1 1 1 1 1 1 1 1 1 1 1 1 1 1 1 1 1 1 1 1 1 1 1 1 1 1 1 1 1 1 1 1 1 1 1 1 1 1 1 1 1 1 1 1 1 1 1 1 1 1 1 1 1 1 1 1 1 1 1 1 1 1 1 1 1 1 1 1 1 1 1 1 1 1 1 1 1 1 1 1 1 1 1 1 1 1 1 1 1 1 1 1 1 1 1 1 1 1 1 1 1 1 1 1 1 1 3 1 1 1 3 1 1 3 1 1 1 1 1 1 1 1 1 1 1 3 1 1 1 1 3 1 1 1 1 1 1 1 1 1 1 1 1 1 1 1 1 1 1 1 1 1 1 1 1 1 1 1 1 1 1 1 1 1 1 1 1 1 1 1 1 1 1 1 1 1 1 1 1 1 1 1 1 1 1 1 1 1 1 2 1 1 1 1 1 1 1 1 1 1 1 1 1 1 2 1 1 2 1 2 1 1 1 1 1 1 1 1 1 1 1 1 1 2 1 1 1 1 1 1 1 1 1 1 1 1 1 1 1 1 1 1 1 1 1 1 1 1 1 1 1 1 1 1 1 1 1 1 1 1 1 1 1 1 1 1 1 1 1 1 1 1 1 1 1 1 1 1 1 1 1 1 1 1 1 1 1 1 1 1 1 1 1 1 1 1 1 1 1 1 1 1 1 1 1 1 1 1 1 1 1 1 1 1 1 1 1 1 1 1 1 1 1 1 1 1 1 1 1 1 1 1 1 1 1 1 1 1 1 1 1 1 1 1 1 1 1 1 1 1 1 1 1 1 1 1 1 1 1 1 2 1 1 2 1 2 1 1 1 1 1 1 1 1 1 1 1 1 1 1 1 1 1 1 1 1 1 1 1 1 1 1 1 1 1 1 1 1 1 1 1 1 1 1 1 1 1 1 1 1 1 1 1 2 1 1 1 1 1 2 1 1 1 1 1 1 1 
</DataArray>
<DataArray type="Float64" Name="stress" NumberOfComponents="9" format="ascii">
-0.016800247244963439 0.00086822418843738236 0 0.00086822418843738236 -0.0022197891689504619 0 0 0 -0.0047550091034784759 -0.016007488695104724 0.0013516132210645538 0 0.0013516132210645538 -0.0053259583006402544 0 0 0 -0.0053333617489362446 -0.017153343784994259 0.0016020479649090213 0 0.0016020479649090213 0.00098118898212171211 0 0 0 -0.0040430387007181368 -0.016487688798543579 0.0019715504294694733 0 0.0019715504294694733 -0.0022839270323545143 0 0 0 -0.0046929039577245238 -0.013555850201080298 0.0042534318590436637 0 0.0042534318590436637 -0.0045200852116322804 0 0 0 -0.0045189838531781452 -0.013553638511663909 0.0042556545709505952 0 0.0042556545709505952 -0.0045128635360608934 0 0 0 -0.0045166255119312012 -0.015617653860979061 0.0041107617480069577 0 0.0041107617480069577 -0.0011083940823736304 0 0 0 -0.0041815119858381721 -0.016042530438460153 0.0036843031143929512 0 0.0036843031143929512 -0.0014282792740185901 0 0 0 -0.0043677024281196866 -0.01502584794971791 0.0048361163540060204 0 0.0048361163540060204 -0.0011302172597480245 0 0 0 -0.0040390163023664837 -0.012020891102582698 0.0050168927909729176 0 0.0050168927909729176 -0.00026100949708598824 0 0 0 -0.0030704751499171712 -0.017337276042238274 0.0051746230707226878 0 0.0051746230707226878 -0.00063379373448591014 0 0 0 -0.0044927674441810461 -0.011866376464656939 0.0056451661791993169 0 0.0056451661791993169 0.00028255300653993662 0 0 0 -0.0028959558645292498 -0.021406631820032572 0.0040492510307120651 0 0.0040492510307120651 -0.0003195961441285651 0 0 0 -0.0054315569910402886 -0.016691902655672795 0.004268767496828977 0 0.004268767496828977 0.00024925797554627323 0 0 0 -0.004110661170031631 -0.025212941509039914 0.0015768463840933743 0 0.0015768463840933743 -0.00082572589303228769 0 0 0 -0.0065096668505180482 -0.020283158461105878 0.0019890052330129521 0 0.0019890052330129521 -0.00011658342477379949 0 0 0 -0.0050999354714699211 -0.018731727022275255 0.0026865625766047908 0 0.0026865625766047908 0.0011363549131246341 0 0 0 -0.0043988430272876543 -0.018927869077590913 0.0041102142772466944 0 0.0041102142772466944 -0.00030355328176490982 0 0 0 -0.0048078555898389561 -0.0022871032956419436 0.0059181658673424778 0 0.0059181658673424778 -0.00076111150292509596 0 0 0 -0.00076205369964175995 -0.0045334719110866409 0.0071185505530647767 0 0.0071185505530647767 -0.00087428528277886872 0 0 0 -0.0013519392984663774 -0.0052806692623561489 0.0054707889952747106 0 0.0054707889952747106 -0.00053548729842297586 0 0 0 -0.0014540391401947816 -0.0094489679716249549 0.0063363502370004472 0 0.0063363502370004472 -0.00073584348635539164 0 0 0 -0.0025462028644950858 -0.0099480105707864617 0.0057716300552877013 0 0.0057716300552877013 -0.0018981460638935275 0 0 0 -0.0029615391586699973 -0.0063096581525530823 0.0064056353453317005 0 0.0064056353453317005 -0.0010645654483337364 0 0 0 -0.0018435559002217055 -0.0064090724540922395 0.0056740489930875637 0 0.0056740489930875637 -0.0021385300675615636 0 0 0 -0.0021369006304134508 -0.010486924995394246 0.0063812185969332825 0 0.0063812185969332825 -0.00035777872744092304 0 0 0 -0.002711175930708791 -0.01127565075012214 0.0050999982062715863 0 0.0050999982062715863 -0.00046995049253383274 0 0 0 -0.002936400310663992 -0.0094339402516032088 0.005548550895579988 0 0.005548550895579988 -0.001048624028852238 0 0 0 -0.0026206410701138608 -0.0042889875120783599 0.0054605240015218144 0 0.0054605240015218144 -0.00029435904498127663 0 0 0 -0.0011458366392649091 -0.0045358574928189782 0.005980016746356614 0 0.005980016746356614 -0.00080469401871476401 0 0 0 -0.0013351378778834371 -0.0021209472410818869 0.0068898346787399237 0 0.0068898346787399237 -0.00076407389582487314 0 0 0 -0.00072125528422668957 -0.00026343180330553034 0.0052029454029271366 0 0.0052029454029271366 1.4603000271388999e-05 0 0 0 -6.2207200758534684e-05 -0.00064599980389490504 0.0062527473898359122 0 0.0062527473898359122 -0.00069892355360891278 0 0 0 -0.00033623083937595749 -0.00074030011785263319 0.0048758450759778466 0 0.0048758450759778466 -0.00015082121300330487 0 0 0 -0.00022278033271398365 -0.0050229340683730925 0.0066504449747418273 0 0.0066504449747418273 -0.00070157723025195823 0 0 0 -0.0014311278246562625 -0.011344396275899407 0.0066148760095696077 0 0.0066148760095696077 -0.00051914770531480414 0 0 0 -0.0029658859953035502 -0.0091469651315879592 0.0065176233855013654 0 0.0065176233855013654 -0.0005477067823481431 0 0 0 -0.0024236679784840238 -0.0060731239319157422 0.0053703909923515161 0 0.0053703909923515161 0.00012867527267787504 0 0 0 -0.0014861121648094668 -0.01136183928994404 0.0054016171098179465 0 0.0054016171098179465 0.00038878663175100081 0 0 0 -0.0027432631645482588 -0.012723132084722883 0.0067456635887597569 0 0.0067456635887597569 -0.00045497193181584863 0 0 0 -0.0032945260041346829 -0.0092211194957156663 0.0054726527853726104 0 0.0054726527853726104 -0.00021851863334524952 0 0 0 -0.0023599095322652287 -0.0066026505082736062 0.0069764815440363642 0 0.0069764815440363642 5.3003952422043393e-05 0 0 0 -0.0016374116389628922 -0.0065999763975415097 0.0053811553170623602 0 0.0053811553170623602 0.00063011802690903125 0 0 0 -0.0014924645926581187 -0.0016528352559636006 0.0050668414182945968 0 0.0050668414182945968 0.00024594266796124586 0 0 0 -0.00035172314700059 -0.0061189399831989306 0.0068673476795894171 0 0.0068673476795894171 -0.00055407749923887945 0 0 0 -0.0016682543706094521 -0.0046953735067260735 0.0047922888790045883 0 0.0047922888790045883 0.00070684429391705854 0 0 0 -0.00099713230320225277 0.0027906330671947938 0.0046792775354888554 0 0.0046792775354888554 -8.4752700645604473e-05 0 0 0 0.00067647009163729864 -0.0010616510941345633 0.005906844411670182 0 0.005906844411670182 -7.5005773254588348e-06 0 0 0 -0.00026728791786500596 -0.025161399496743599 0.0018580707153712153 0 0.0018580707153712153 -0.0010244849797021657 0 0 0 -0.0065464711191114428 -0.02001352295641828 0.0046582718269649725 0 0.0046582718269649725 2.0684655527847262e-06 0 0 0 -0.0050028636227163739 -0.029667499944631262 0.0024453944139295374 0 0.0024453944139295374 -0.00013155995136588782 0 0 0 -0.0074497649739992851 -0.020352965873107139 0.0033002356483637172 0 0.0033002356483637172 0.00079895902619462819 0 0 0 -0.0048885017117281286 -0.015837714423179015 0.0048027888860961423 0 0.0048027888860961423 0.00053323941773535458 0 0 0 -0.0038261187513609152 -0.016472228138187151 0.0054373756212500526 0 0.0054373756212500526 -0.00035980795612671618 0 0 0 -0.0042080090235784651 -0.016800012977884988 0.0060978037086315412 0 0.0060978037086315412 -0.00034670424452394426 0 0 0 -0.0042866793056022291 -0.019354562889630719 0.0041905459461823611 0 0.0041905459461823611 0.00041190676249712628 0 0 0 -0.0047356640317833959 -0.013819162046954894 0.0051402559906600339 0 0.0051402559906600339 -8.5803075620047298e-05 0 0 0 -0.0034762412806437311 -0.020308056571194597 0.0058445920416214051 0 0.0058445920416214051 -0.00046350368073129825 0 0 0 -0.0051928900629814763 -0.016128563782329023 0.0047506119956210293 0 0.0047506119956210293 -0.0003290128803253088 0 0 0 -0.0041143941656635865 -0.019723271656270937 0.0043879199733053102 0 0.0043879199733053102 0.00045986019237376566 0 0 0 -0.0048158528659742947 -0.027638470519478989 0.0035840304708121607 0 0.0035840304708121607 -0.0004244420440143433 0 0 0 -0.0070157281408733283 -0.026034302994144214 0.0034956070183759474 0 0.0034956070183759474 -0.00045182243026229817 0 0 0 -0.0066215313561016273 -0.025170768564135759 0.0020760736283472513 0 0.0020760736283472513 0.00026679305273523152 0 0 0 -0.0062259938778501302 -0.033950572866764964 0.0024277916812069037 0 0.0024277916812069037 -0.00029941414983412819 0 0 0 -0.0085624967541497767 -0.036362368359294885 0.0021824085301595728 0 0.0021824085301595728 -0.00028180319018652859 0 0 0 -0.0091610428873703572 -0.026641079965939712 0.0027274635653288127 0 0.0027274635653288127 0.00074454200307978681 0 0 0 -0.0064741344907149794 -0.030925308957300536 0.0019959055850980144 0 0.0019959055850980144 0.00043098802837428056 0 0 0 -0.0076235802322315626 -0.042236229983365695 0.0016217873662329532 0 0.0016217873662329532 0.00065208215172387479 0 0 0 -0.010396036957910458 -0.032424524996662867 0.0045970383128741653 0 0.0045970383128741653 0.00081912938244504963 0 0 0 -0.0079013489035544577 -0.032556863255670372 0.0016880993496107971 0 0.0016880993496107971 -0.0005704032089876819 0 0 0 -0.0082818166161645126 -0.034487808778137563 0.0017996598914143333 0 0.0017996598914143333 0.0013613204431740522 0 0 0 -0.0082816220837408777 -0.047824747076030502 0.00035474288750683008 0 0.00035474288750683008 -0.00050855432349129759 0 0 0 -0.01208332534988045 -0.019885165075885596 0.0031837068778554287 0 0.0031837068778554287 0.0011621339752756824 0 0 0 -0.0046807577751524733 -0.016184345762841643 0.0063826557138630374 0 0.0063826557138630374 0.00083761498651676106 0 0 0 -0.0038366826940812266 -0.024376695043935442 0.0042763816848546332 0 0.0042763816848546332 -0.00017697352789060837 0 0 0 -0.0061384171429565071 -0.0241708837669149 0.0049020181175975916 0 0.0049020181175975916 0.00038023089355509153 0 0 0 -0.0059476632183399526 -0.015992690736826909 0.0064462940448153337 0 0.0064462940448153337 0.00074406180248489349 0 0 0 -0.003812157233585503 -0.027771021422801755 0.0059059349038752956 0 0.0059059349038752956 0.001045731757877439 0 0 0 -0.006681322416231073 -0.023258340943711923 0.0041323564056377103 0 0.0041323564056377103 -0.00044585195117508112 0 0 0 -0.0059260482237217561 -0.020640943070695035 0.0059791082543075025 0 0.0059791082543075025 0.00044821964260942804 0 0 0 -0.0050481808570214028 -0.014813597012794159 0.0064723126882767551 0 0.0064723126882767551 3.7761557948337576e-05 0 0 0 -0.0036939588637114606 -0.0097289309711151052 0.0061541091286821904 0 0.0061541091286821904 0.00020576842881508029 0 0 0 -0.002380790635575003 -0.0096692805020183181 0.0053011582549820826 0 0.0053011582549820826 0.00035375654614976451 0 0 0 -0.0023288809889671401 -0.0089005071652204799 0.0051674744911473832 0 0.0051674744911473832 0.00091549562142890367 0 0 0 -0.0019962528859478927 -0.0044120513169658296 0.0060915022074817049 0 0.0060915022074817049 9.8393047945874706e-05 0 0 0 -0.0010784145672549901 -0.015906743546148502 0.0054084327618806509 0 0.0054084327618806509 0.00035910845928308413 0 0 0 -0.0038869087717163572 2.9659309285976626e-05 0.0044098419073987814 0 0.0044098419073987814 0.0012979369120603955 0 0 0 0.00033189905533659476 -0.0012038959792275003 0.0061896639499178785 0 0.0061896639499178785 -0.00031869824339817582 0 0 0 -0.00038064855565641924 -0.0034260507348831612 0.0043363616320772755 0 0.0043363616320772755 0.0016287482482764603 0 0 0 -0.00044932562165167489 0.0033732073522441666 0.0025074344150010598 0 0.0025074344150010598 0.0023641765115093478 0 0 0 0.0014343459659383784 0.0017462303826238819 0.0053687957333125773 0 0.0053687957333125773 0.00054340566482129291 0 0 0 0.00057240901186129392 -0.002530061514910073 0.0044856842724409693 0 0.0044856842724409693 0.0025469815255288117 0 0 0 4.2300026546846642e-06 0.0044042087985891216 0.0032697844627316251 0 0.0032697844627316251 0.0025788013923036361 0 0 0 0.0017457525477231894 0.0039710664805009156 0.0025361158018035977 0 0.0025361158018035977 0.0043711726120423885 0 0 0 0.0020855597731358234 -0.0092922591513098455 0.0064261867183089674 0 0.0064261867183089674 0.00076235069236775185 0 0 0 -0.0021324771147355217 -0.013384976168319539 0.0042020694932421512 0 0.0042020694932421512 0.00084443791946479593 0 0 0 -0.0031351345622136814 -0.0027352022483290777 0.0048497147701681408 0 0.0048497147701681408 0.0009275565274185181 0 0 0 -0.00045191143022764012 -0.0064413661098541531 0.0036009656880396541 0 0.0036009656880396541 0.0020653883518257036 0 0 0 -0.0010939944395071165 -0.0087909176154871999 0.0063018523601606723 0 0.0063018523601606723 0.0021072327078853065 0 0 0 -0.0016709212269004799 -0.012820118821895439 0.0060953432064083171 0 0.0060953432064083171 0.003037089710471591 0 0 0 -0.0024457572778559603 -0.008099989825493658 0.0043649904839575329 0 0.0043649904839575329 0.0063305711565182499 0 0 0 -0.00044235466724385289 -0.012343001204847194 0.0018781654784756907 0 0.0018781654784756907 0.0031507609225940314 0 0 0 -0.0022980600705632889 0.012336017908689262 0.00042469369962413323 0 0.00042469369962413323 0.0058316821687120143 0 0 0 0.0045419250193503204 -0.0041924434248098962 0.0050008046113809972 0 0.0050008046113809972 0.003989316620220229 0 0 0 -5.0781701147421116e-05 0.0024300584219174373 0.0025442763175326788 0 0.0025442763175326788 0.0047689997940421648 0 0 0 0.0017997645539899014 0.003167076865112476 0.0028273419901034824 0 0.0028273419901034824 0.0076911679757683676 0 0 0 0.002714561210220217 0.01026094734929239 -0.00070226903808966873 0 -0.00070226903808966873 0.0090148495106484039 0 0 0 0.0048189492149851958 0.0010885750770358096 0.0019537500969031701 0 0.0019537500969031701 0.012899905137566642 0 0 0 0.0034971200536506042 8.3187793608968663e-05 -0.0012458616478675313 0 -0.0012458616478675313 0.013668465476737057 0 0 0 0.0034379133175865134 0.0050387390036399221 -0.0041078484595638703 0 -0.0041078484595638703 0.010349926047160646 0 0 0 0.0038471662627001454 0.0098210416337378426 -0.0014315686547283976 0 -0.0014315686547283976 0.020149781464264299 0 0 0 0.0074927057745005216 -0.01174788078270473 0.00055131837717922738 0 0.00055131837717922738 0.0080309652367507589 0 0 0 -0.00092922888648849095 -0.0015189435566790276 0.00091468763691351929 0 0.00091468763691351929 0.0059822482684354153 0 0 0 0.0011158261779391013 -0.0033042838486106764 -0.0032575703733041667 0 -0.0032575703733041667 0.0078408791908929354 0 0 0 0.0011341488355705691 -0.013083632840114004 0.0019261970570138474 0 0.0019261970570138474 0.0042767775126781316 0 0 0 -0.0022017138318589508 -0.016818564399793068 -0.0023003711674480787 0 -0.0023003711674480787 0.0044459878044861983 0 0 0 -0.003093144148826707 -0.023753082000125166 8.9504292467963709e-05 0 8.9504292467963709e-05 0.0028323594003444724 0 0 0 -0.005230180649945175 -0.0266315307639882 0.0032177886693791416 0 0.0032177886693791416 0.002162151842173287 0 0 0 -0.0061173447304537273 -0.033612048073560885 -0.0022457156031114867 0 -0.0022457156031114867 0.0025185230334763206 0 0 0 -0.0077733812600211498 -0.036910811860216011 0.0014405233554731223 0 0.0014405233554731223 0.00087950724700019967 0 0 0 -0.0090078261533039494 -0.052335271424702109 0.00046599828496590029 0 0.00046599828496590029 0.00093946273996629859 0 0 0 -0.01284895217118398 -0.038109972496806269 0.0017421839172544751 0 0.0017421839172544751 0.0010795411331693122 0 0 0 -0.0092576078409092356 -0.037658219520490935 0.00042808183004948083 0 0.00042808183004948083 0.00052552164678346114 0 0 0 -0.0092831744684268788 -0.039197139209392648 0.00026001363897260737 0 0.00026001363897260737 -0.00048942409267649367 0 0 0 -0.0099216408255172785 -0.032176705697142399 0.0045975799115056462 0 0.0045975799115056462 0.00099513288461799965 0 0 0 -0.0077953932031311068 -0.050954090949197221 0.0021009044476823363 0 0.0021009044476823363 0.00015800759946640874 0 0 0 -0.012699020837432691 -0.036716926953462389 0.0038544698667240702 0 0.0038544698667240702 0.0010137476980226351 0 0 0 -0.0089257948138599455 -0.024525896399860775 0.0057705881031245611 0 0.0057705881031245611 0.0018508209341399767 0 0 0 -0.0056687688664301961 -0.01888770667131337 0.0050542227920974681 0 0.0050542227920974681 0.0031234452874535357 0 0 0 -0.0039410653459649586 -0.02728907383217645 0.0017371131681768459 0 0.0017371131681768459 0.0013896907215536257 0 0 0 -0.0064748457776557088 0.0092289456936617779 -0.0038675447078209222 0 -0.0038675447078209222 0.020255803952416412 0 0 0 0.0073711874115195506 0.0098843169513575576 -0.0041146033289862815 0 -0.0041146033289862815 0.017052824191528287 0 0 0 0.0067342852857214617 0.0092146977744629356 -0.0045263042992419629 0 -0.0045263042992419629 0.013753483903992815 0 0 0 0.0057420454196139385 0.0076855062317170552 -0.0027220512067982674 0 -0.0027220512067982674 0.018411625810294804 0 0 0 0.0065242830105029705 0.0087878535022810674 -0.00015721688195338354 0 -0.00015721688195338354 0.020669390563835967 0 0 0 0.0073643110165292573 0.01027238303039606 -0.0010368729169484637 0 -0.0010368729169484637 0.024084865218763823 0 0 0 0.008589312062289977 0.0070861626061413194 -0.0049101586783408535 0 -0.0049101586783408535 0.023490095823989716 0 0 0 0.007644064607532761 0.0072873144421049217 -0.0046669550522506105 0 -0.0046669550522506105 0.022201151885484285 0 0 0 0.0073721165818973027 0.0077440023233011912 -0.005180731483509048 0 -0.005180731483509048 0.022293452514051876 0 0 0 0.0075093637093382598 0.0077198451454334703 -0.004929135463097447 0 -0.004929135463097447 0.020690322527846208 0 0 0 0.0071025419183199066 0.0055539969688685048 -0.005047725181040047 0 -0.005047725181040047 0.019836776753065583 0 0 0 0.0063476934304835253 0.0068285701095694151 -0.0056179191784448915 0 -0.0056179191784448915 0.020788524806549108 0 0 0 0.0069042737290296308 0.0069992460602217674 -0.005594899969967787 0 -0.005594899969967787 0.020785942857163394 0 0 0 0.0069462972293462908 0.0069727468286443842 -0.0067623405070487003 0 -0.0067623405070487003 0.020379610035930043 0 0 0 0.0068380892161436085 0.0065214843699122754 -0.0056771181361953624 0 -0.0056771181361953624 0.023061504826799806 0 0 0 0.0073957472991780203 0.021537639684204201 -0.018977384258650337 0 -0.018977384258650337 0.035639872038394069 0 0 0 0.014294377930649558 0.0042321665004496287 -0.011340448738424637 0 -0.011340448738424637 0.021720139489976489 0 0 0 0.0064880764976065312 0.020461492739451935 -0.012607613828532888 0 -0.012607613828532888 0.020083774066530523 0 0 0 0.010136316701495609 0.0051947161529445202 -0.006945511595667312 0 -0.006945511595667312 0.020953026222295522 0 0 0 0.0065369355938100088 0.022685918189005103 -0.0035124259940482044 0 -0.0035124259940482044 0.030258986960542605 0 0 0 0.013236226287386937 0.020260057343944579 -0.0063058015166985587 0 -0.0063058015166985587 0.01598307745721203 0 0 0 0.0090607837002891489 0.03312802827538458 -0.010222592407412134 0 -0.010222592407412134 0.02102909963383829 0 0 0 0.013539281977305717 0.01493546804471845 -0.0072763086014970731 0 -0.0072763086014970731 0.014648722350439833 0 0 0 0.0073960475987895746 0.010979172141354901 -0.00037015874332988613 0 -0.00037015874332988613 0.014156797998657385 0 0 0 0.0062839925350030561 0.021622853865630121 -0.0044275042439851676 0 -0.0044275042439851676 0.011719139053445557 0 0 0 0.0083354982297689229 0.010486848570523897 -0.0014022182307880694 0 -0.0014022182307880694 0.0087450471733321045 0 0 0 0.004807973935964 0.014279945827788189 -0.0021454686215451584 0 -0.0021454686215451584 0.0065060492185695443 0 0 0 0.0051964987615894347 0.011384298708145271 -0.0082010283272619874 0 -0.0082010283272619874 0.018537614642048079 0 0 0 0.0074804783375483335 0.0093335406800712072 -0.0076528344223604147 0 -0.0076528344223604147 0.012261059253882059 0 0 0 0.0053986499834883222 0.014686509228654693 -0.0063089444039033486 0 -0.0063089444039033486 0.014728036341120678 0 0 0 0.0073536363924438493 0.010096214379214524 -0.0035206663554135935 0 -0.0035206663554135935 0.0073271419565940675 0 0 0 0.004355839083952151 0.011681700570007543 -0.0040297622315464297 0 -0.0040297622315464297 0.014694885200205132 0 0 0 0.0065941464425531638 0.01128043343531138 -0.0026310695279371408 0 -0.0026310695279371408 0.0090785927676239157 0 0 0 0.0050897565507338205 0.010830194244409098 0.00062949305216003504 0 0.00062949305216003504 0.0077344566421891255 0 0 0 0.0046411627216495534 0.0097192812560575916 0.00047333284148586268 0 0.00047333284148586268 0.0036855075608220201 0 0 0 0.0033511972042199025 0.0089764788765059316 -0.00056720142717974278 0 -0.00056720142717974278 0.0063280237032135424 0 0 0 0.0038261256449298644 0.011214519818615053 -0.001064679240614887 0 -0.001064679240614887 0.0051246615242398208 0 0 0 0.004084795335713722 0.0091851061088951066 0.0014074673567974309 0 0.0014074673567974309 0.0056746816482911577 0 0 0 0.0037149469392965687 0.0055019524249766919 0.0034606230406614494 0 0.0034606230406614494 0.00285831050621577 0 0 0 0.0020900657327981159 0.008403030193937934 0.00093392650489554818 0 0.00093392650489554818 0.003158813742739657 0 0 0 0.0028904609841693975 0.0071542000661818442 0.003679780691213338 0 0.003679780691213338 0.0023646969647903955 0 0 0 0.0023797242577430597 0.0057166055687301043 0.0028797945652511625 0 0.0028797945652511625 0.0013508342509166646 0 0 0 0.0017668599549116905 0.0034739062640728943 0.0050918788636060714 0 0.0050918788636060714 0.00053369012207594383 0 0 0 0.0010018990965372085 0.010747146948864127 0.00035497108013560165 0 0.00035497108013560165 0.005314022495626328 0 0 0 0.004015292361122612 0.010338793341412056 9.0563883990304236e-05 0 9.0563883990304236e-05 0.0046631362155416366 0 0 0 0.003750482389238423 0.0093850355641450656 0.0022247592748897704 0 0.0022247592748897704 0.0038769558030833083 0 0 0 0.003315497841807089 0.0086788360300932184 0.0018864437583135914 0 0.0018864437583135914 0.0032610047515116841 0 0 0 0.0029849601954012265 0.010637165199122788 0.0010768456331533803 0 0.0010768456331533803 0.0063739623747636545 0 0 0 0.0042527818934716115 0.011349440730033434 0.0031315698062558094 0 0.0031315698062558094 0.0036989436217615152 0 0 0 0.0037620960879487402 0.013569946503769345 0.0030797674430782258 0 0.0030797674430782258 0.0064164132858584508 0 0 0 0.0049965899474069507 0.013919378133398698 0.0027115937272030842 0 0.0027115937272030842 0.0060052096749023086 0 0 0 0.0049811469520752534 0.011958062424425358 0.00061317486723619233 0 0.00061317486723619233 0.007694155243880208 0 0 0 0.0049130544170763839 0.011946417090561044 0.0006549519296281779 0 0.0006549519296281779 0.009598753739098102 0 0 0 0.0053862927074147847 0.010328473207743438 -0.00052983301415089178 0 -0.00052983301415089178 0.0080626226561543099 0 0 0 0.004597773965974437 0.012402615567617997 -0.00031259994928216806 0 -0.00031259994928216806 0.014243718824408164 0 0 0 0.0066615835980065406 0.012897707792984747 0.0015716798858625963 0 0.0015716798858625963 0.010453764745839061 0 0 0 0.0058378681347059551 0.0094928762063454467 -0.0014770666193146152 0 -0.0014770666193146152 0.012662439423170311 0 0 0 0.0055388289073789393 0.01083849475889178 -0.002196042050785915 0 -0.002196042050785915 0.016491277814586536 0 0 0 0.0068324431433695806 0.0098843418467028637 -0.0029832051522898618 0 -0.0029832051522898618 0.01143994881526739 0 0 0 0.0053310726654925613 0.013577607403541775 0.0022824938025199529 0 0.0022824938025199529 0.023318111242032986 0 0 0 0.0092239296613936886 0.010173825115483912 0.00054240114670894173 0 0.00054240114670894173 0.015413859495778988 0 0 0 0.0063969211528157261 0.011785211888978273 -0.00035062361627582561 0 -0.00035062361627582561 0.019244247048779105 0 0 0 0.0077573647344393419 0.013174282249969384 0.0017073841008110391 0 0.0017073841008110391 0.011674351827541146 0 0 0 0.0062121585193776318 0.014283022425981727 0.0031651717798614684 0 0.0031651717798614684 0.015427797290280444 0 0 0 0.007427704929065547 0.014468525741476067 0.0029599394986087463 0 0.0029599394986087463 0.015532348945080888 0 0 0 0.0075002186716392376 0.015652303329356125 0.0036363170154396956 0 0.0036363170154396956 0.0084282062149561923 0 0 0 0.0060201273860780767 0.015668878416055586 0.003854720024799925 0 0.003854720024799925 0.0091460342642141618 0 0 0 0.0062037281700674414 0.018311490573996659 0.0048892172465210514 0 0.0048892172465210514 0.00687940294259572 0 0 0 0.0062977233791480904 0.017755188144465459 0.0045271808374738216 0 0.0045271808374738216 0.0039640460185999329 0 0 0 0.0054298085407663444 0.015812286801907917 0.0034573698579092134 0 0.0034573698579092134 0.0017133778655205358 0 0 0 0.0043814161668571123 0.015543711497120237 0.0041468942931671363 0 0.0041468942931671363 0.0046821603370823459 0 0 0 0.0050564679585506488 0.016062368724953348 0.0035783656627327767 0 0.0035783656627327767 0.0045753204415597062 0 0 0 0.0051594222916282696 0.012106606981598433 0.0022362898503920543 0 0.0022362898503920543 0.0042406290300779186 0 0 0 0.004086809002919088 0.012203598538598287 0.003727262231761082 0 0.003727262231761082 0.0022269697484717122 0 0 0 0.0036076420717674985 0.013970880918211942 0.0037595756678489409 0 0.0037595756678489409 0.0024198333329951936 0 0 0 0.0040976785628017848 0.014426517179358729 0.0037807576629449915 0 0.0037807576629449915 0.0040481644289651151 0 0 0 0.0046186704020809641 0.014704333592009768 0.0034604309373442808 0 0.0034604309373442808 0.0011421314335796039 0 0 0 0.0039616162563973437 0.014550218383706888 0.0041542302841714581 0 0.0041542302841714581 0.00072948921058582812 0 0 0 0.0038199268985731772 0.011838069325591349 0.003914874733369527 0 0.003914874733369527 0.00084755054393215526 0 0 0 0.003171404967380876 0.016599339792509264 0.0038450033129844513 0 0.0038450033129844513 0.00047515916813229211 0 0 0 0.0042686247401603882 0.016435190042269222 0.0030750338725685071 0 0.0030750338725685071 0.0002588859714373129 0 0 0 0.0041735190034266345 0.01866362309220897 0.0035836445583470621 0 0.0035836445583470621 0.0008019488952887531 0 0 0 0.00486639299687443 0.0173432641974966 0.0032186074064394624 0 0.0032186074064394624 0.00057169451673822272 0 0 0 0.0044787396785587064 0.016396587779320113 0.0040338225537369307 0 0.0040338225537369307 0.0017846635358257893 0 0 0 0.0045453128287864745 0.0032719673288718332 0.0047223560389133157 0 0.0047223560389133157 0.0015169508255586488 0 0 0 0.0011972295386076196 0.0067469363462099308 0.0039966966109677808 0 0.0039966966109677808 0.00045250086555878935 0 0 0 0.0017998593029421792 0.0034201377942092229 0.0050109951430978919 0 0.0050109951430978919 0.00044929468223496062 0 0 0 0.00096735811911104544 0.0089351412544596727 0.0035975558821482456 0 0.0035975558821482456 9.2629676206171241e-05 0 0 0 0.0022569427326664653 0.0073553826372093154 0.0042005140429019648 0 0.0042005140429019648 0.0022017961954619442 0 0 0 0.0023892947081678145 0.0092531693245310569 0.0037253610012508084 0 0.0037253610012508084 0.0015519204686007954 0 0 0 0.0027012724482829631 0.010247015436208918 0.00249186880448168 0 0.00249186880448168 0.0019116640664329984 0 0 0 0.0030396698756604799 0.010337524212863883 0.004398146478417209 0 0.004398146478417209 0.0027921100170079207 0 0 0 0.0032824085574679469 0.011516703150455478 0.0033991378630696982 0 0.0033991378630696982 0.00056389313398665791 0 0 0 0.0030201490711105339 0.0096056188629428593 0.0036937214064169163 0 0.0036937214064169163 0.00094289411498272961 0 0 0 0.0026371282444813951 0.011664709145914932 0.004514018276246437 0 0.004514018276246437 0.00029141422084321029 0 0 0 0.0029890308416895346 0.0081820212618577363 0.0048967441809114262 0 0.0048967441809114262 0.0011065564947285965 0 0 0 0.0023221444391465832 0.0075426022990389037 0.0044716571858515663 0 0.0044716571858515663 9.984943373306937e-05 0 0 0 0.0019106129331929924 0.003889033334812885 0.0048109026021338347 0 0.0048109026021338347 0.0001951699678312286 0 0 0 0.001021050825661029 0.0033052158224001153 0.0057199058992068608 0 0.0057199058992068608 -0.00014378422434833948 0 0 0 0.00079035789951294698 0.00327766267021499 0.0049831719990393892 0 0.0049831719990393892 -1.6033577185242676e-05 0 0 0 0.00081540727325743988 2.2880621143996777e-05 0.0060006492155388058 0 0.0060006492155388058 -0.0002613948263539001 0 0 0 -5.9628551302474964e-05 0.0021520764679983802 0.0063846964254350418 0 0.0063846964254350418 -0.00025397933766798867 0 0 0 0.00047452428258259788 -0.00037066151084958962 0.0056379620054030372 0 0.0056379620054030372 0.00026534642657702334 0 0 0 -2.6328771068138968e-05 0.002406756755211268 0.0048943852882197686 0 0.0048943852882197686 -0.00026643082837628576 0 0 0 0.00053508148170874469 0.0057483481295477739 0.0056679092288149571 0 0.0056679092288149571 2.2485720137724666e-05 0 0 0 0.0014427084624213746 0.0051816084952014761 0.0049624647650946836 0 0.0049624647650946836 0.00031657849640537652 0 0 0 0.0013745467479017127 0.0062837878110970809 0.0058612226126062636 0 0.0058612226126062636 0.00015559218338045142 0 0 0 0.0016098449986193834 0.0082443455616391624 0.0042539157112903968 0 0.0042539157112903968 0.0001760778758444978 0 0 0 0.0021051058593709159 0.0087693060266769863 0.0047390482101153011 0 0.0047390482101153011 0.00062126679317189501 0 0 0 0.0023476432049622208 0.011341665353102227 0.0048390835959002954 0 0.0048390835959002954 0.000145801108684427 0 0 0 0.0028718666154466635 0.0088476002865575023 0.0044199613081375606 0 0.0044199613081375606 0.0015739961332110562 0 0 0 0.0026053991049421392 0.0075785355762463232 0.0060378186345875929 0 0.0060378186345875929 0.00084815651666126854 0 0 0 0.0021066730232268977 0.0065770234885175654 0.0052723465873624198 0 0.0052723465873624198 0.0021923660261986195 0 0 0 0.0021923473786790459 0.0038387784108532838 0.006857238071519554 0 0.006857238071519554 0.00020015303827528377 0 0 0 0.0010097328622821408 0.002222591415414003 0.0057073236631989916 0 0.0057073236631989916 0.00074000529151914418 0 0 0 0.00074064917673328698 -0.00021156594199362756 0.0072754679976382974 0 0.0072754679976382974 -0.0006177692101955283 0 0 0 -0.0002073337880472894 0.016062994869387805 0.0029436404119504264 0 0.0029436404119504264 0.0010688532284107103 0 0 0 0.0042829620244496302 0.016671495324191262 0.0032770285588092658 0 0.0032770285588092658 0.00023135931927548148 0 0 0 0.0042257136608666885 0.014208681398963521 0.0037080653042182235 0 0.0037080653042182235 0.00045307280260693805 0 0 0 0.0036654385503926174 0.014240106999089463 0.0039738036214351782 0 0.0039738036214351782 0.00022123575201689338 0 0 0 0.0036153356877765899 0.011746528965636441 0.004066246847323797 0 0.004066246847323797 0.0010744867067447178 0 0 0 0.0032052539180952885 0.013386236051644223 0.0039010193409665149 0 0.0039010193409665149 0.0013626513188944034 0 0 0 0.0036872218426346566 0.010479437436214899 0.0045162554949511827 0 0.0045162554949511827 0.0034910871796714343 0 0 0 0.0034926311539715833 0.010555009297339799 0.0050993417889812001 0 0.0050993417889812001 0.0019967535026695028 0 0 0 0.0031379407000023253 0.012816743122930204 0.0039214968183134578 0 0.0039214968183134578 0.0042716262836279602 0 0 0 0.0042720923516395403 0.012961872160376134 0.0038731132070559701 0 0.0038731132070559701 0.0021192055735275613 0 0 0 0.0037702694334759237 0.015840171171113328 0.0026723589261594561 0 0.0026723589261594561 0.002522134234257907 0 0 0 0.0045905763513428089 0.014539162146314087 0.0033964810742441731 0 0.0033964810742441731 0.00081665183671882904 0 0 0 0.0038389534957582283 0.014002022718856312 0.0031993457970849633 0 0.0031993457970849633 0.0023670280045327632 0 0 0 0.0040922626808472685 0.014337728200613227 0.003072756879216011 0 0.003072756879216011 0.004778693839057757 0 0 0 0.0047791055099177466 0.015267573930763599 0.0019075006809049892 0 0.0019075006809049892 0.001778310710562273 0 0 0 0.0042614711603314679 0.016568435328364252 0.0009055214078883036 0 0.0009055214078883036 0.0055191607453323344 0 0 0 0.0055218990184241461 0.01507434089256807 0.000369537690786239 0 0.000369537690786239 0.0011828637914019211 0 0 0 0.0040643011709924973 0.017824531462875489 0.00027300128433929623 0 0.00027300128433929623 0.0018558265296913484 0 0 0 0.0049200894981417092 0.017587560189866177 0.0013408754922126418 0 0.0013408754922126418 0.0010790910218472153 0 0 0 0.004666662802928349 0.017973404744284157 0.0019527209502820022 0 0.0019527209502820022 0.000511204932371093 0 0 0 0.0046211524191638138 0.017109552425089873 0.0010001982057709798 0 0.0010001982057709798 -0.000244614064294059 0 0 0 0.0042162345901989549 0.019441596960335709 0.0010640820168944707 0 0.0010640820168944707 0.00046861816307534399 0 0 0 0.0049775537808527653 0.017988299843047104 0.0017904163854782012 0 0.0017904163854782012 -0.00096436627072740743 0 0 0 0.0042559833930799224 0.018545190333113467 0.00022762950930548258 0 0.00022762950930548258 -0.0018861759066510692 0 0 0 0.0041647536066155991 0.017138935856726732 -0.0019803775720817519 0 -0.0019803775720817519 -0.0021603134162139423 0 0 0 0.0037446556101281975 0.018170643333970123 -0.00064970192684052309 0 -0.00064970192684052309 -0.00010114517504219165 0 0 0 0.0045173745397319841 0.017155977312352959 -0.00043657282547184673 0 -0.00043657282547184673 0.00038873888424142869 0 0 0 0.0043861790491485971 0.016403089326361697 -0.000570692573128083 0 -0.000570692573128083 0.0054687115882755127 0 0 0 0.0054679502286593016 0.016164176061782241 -0.0019546609408131643 0 -0.0019546609408131643 0.0053835552366344897 0 0 0 0.0053869328246041832 0.014877006953730834 -0.0016787434802101597 0 -0.0016787434802101597 0.0013630370727366543 0 0 0 0.0040600110066168725 0.013471114496708049 -0.0039991565422877904 0 -0.0039991565422877904 0.0044891967529742741 0 0 0 0.0044900778124205799 0.016335702135724533 -0.0024400574132886948 0 -0.0024400574132886948 0.0011141389181553336 0 0 0 0.0043624602634699658 0.012795854711735867 -0.0039646525936790043 0 -0.0039646525936790043 -0.00029456228262668069 0 0 0 0.0031253231072772966 0.0082289028535838787 -0.0058812949973475062 0 -0.0058812949973475062 0.0027402931408421274 0 0 0 0.002742298998606502 0.0088863295371223033 -0.0066095671117474761 0 -0.0066095671117474761 -0.001554726477100225 0 0 0 0.0018329007650055192 0.0039768047000594423 -0.0084854590060031536 0 -0.0084854590060031536 -0.0020458106247694639 0 0 0 0.00048274851882249264 0.0087899011722689848 -0.0067369118779918259 0 -0.0067369118779918259 -0.0036541116388010692 0 0 0 0.0012839473833669793 0.010675496501868876 -0.0052435441149207233 0 -0.0052435441149207233 -0.0023681576873398873 0 0 0 0.0020768347036322493 0.013153215052214631 -0.0042759239481408255 0 -0.0042759239481408255 -0.00050375371464919357 0 0 0 0.0031623653343913578 0.0070190567191901112 -0.0063702895600468252 0 -0.0063702895600468252 -0.0022659333730389447 0 0 0 0.0011882808365377903 0.012882031496849432 -0.0043589844825872139 0 -0.0043589844825872139 -0.0024841993428142313 0 0 0 0.0025994580385087993 0.016978837219344945 -0.0026084054131738665 0 -0.0026084054131738665 -0.0031872927347688217 0 0 0 0.0034478861211440321 0.017805383485077812 -0.0013871165453459809 0 -0.0013871165453459809 -0.0013438712397752647 0 0 0 0.0041153780613256384 0.018585489432945298 -0.0019767048037741598 0 -0.0019767048037741598 -0.0021520897171674706 0 0 0 0.0041083499289444585 0.018112408853851743 -0.0017155832000596064 0 -0.0017155832000596064 -0.0034123010852896642 0 0 0 0.0036750269421405198 0.0222579611530326 -0.00012629617952355891 0 -0.00012629617952355891 -0.0026535128637368874 0 0 0 0.004901112072323929 0.014868757999576179 -0.0046961067587409505 0 -0.0046961067587409505 -0.0044127346555030769 0 0 0 0.0026140058360182745 0.011513354533010273 -0.0065478206632658062 0 -0.0065478206632658062 -0.0038379303134389656 0 0 0 0.0019188560548928247 0.014871595047201872 -0.0044860033904672719 0 -0.0044860033904672719 -0.0034067483437119211 0 0 0 0.0028662116758724886 0.016050226513894456 -0.0031670394944132074 0 -0.0031670394944132074 -0.0030278282969848557 0 0 0 0.0032555995542273971 0.0089171976731317222 -0.0066169389609985153 0 -0.0066169389609985153 -0.004623621433763216 0 0 0 0.001073394059842127 0.015041497088075593 -0.0067594723909283729 0 -0.0067594723909283729 -0.0047464963136381946 0 0 0 0.002573750193609347 0.01813740670206563 -0.0052116306468425622 0 -0.0052116306468425622 -0.0031066170637591255 0 0 0 0.0037576974095766269 0.016818087095528456 -0.0043150825338112856 0 -0.0043150825338112856 -0.0042246184438370525 0 0 0 0.0031483671629228519 0.024283111630376483 -0.0018225149399343655 0 -0.0018225149399343655 -0.0018951525515779669 0 0 0 0.0055969897696996279 0.018004203914294987 -0.0065365838495804254 0 -0.0065365838495804254 -0.0020851098409120855 0 0 0 0.0039797735183457212 0.017391116013966434 -0.0061801063469831266 0 -0.0061801063469831266 -0.0029337859711577839 0 0 0 0.0036143325107021603 0.020732989580295378 -0.00013669083581045044 0 -0.00013669083581045044 -0.0021237180873875366 0 0 0 0.0046523178732269608 0.021423427494131668 -0.0030821212674353804 0 -0.0030821212674353804 -0.0032049135367372816 0 0 0 0.0045546284893485953 0.024026649252664355 0.00045117377979075445 0 0.00045117377979075445 -0.0025811699558245626 0 0 0 0.0053613698242099472 0.027666529250072829 0.002491548877367575 0 0.002491548877367575 0.00083810795444259727 0 0 0 0.0071261593011288562 0.023596223156409992 0.0031971302132142113 0 0.0031971302132142113 0.0011292552374797555 0 0 0 0.0061813695984724391 0.024651193801524047 0.002896920917658914 0 0.002896920917658914 0.0016628018532753083 0 0 0 0.0065784989136998279 0.02244866331383483 0.0020564785137193106 0 0.0020564785137193106 -0.0011626030951423401 0 0 0 0.0053215150546731252 0.022421885376430559 0.0039292445045148372 0 0.0039292445045148372 0.0014009011580388992 0 0 0 0.0059556966336173659 0.023242281325001314 0.0050604431502949089 0 0.0050604431502949089 0.0045194651115087001 0 0 0 0.0069404366091274962 0.021209701641450258 0.0036126076322178374 0 0.0036126076322178374 0.0017053656310930046 0 0 0 0.0057287668181358166 0.020817356571165645 0.0051396271044908569 0 0.0051396271044908569 0.0049221791333707177 0 0 0 0.0064348839261340919 0.018681134141692892 0.0038909594561925172 0 0.0038909594561925172 0.0019219656819269145 0 0 0 0.0051507749559049527 0.018213322838878009 0.0037186619841698861 0 0.0037186619841698861 0.0018063450544853598 0 0 0 0.0050049169733408401 0.019967305308465501 0.0026239474775363956 0 0.0026239474775363956 -0.0004506728495985747 0 0 0 0.0048791581147167289 0.020765146154420457 0.0032178115942808894 0 0.0032178115942808894 0.0005459691963726589 0 0 0 0.0053277788376982771 0.018139253011143601 0.0024411013253456035 0 0.0024411013253456035 -0.00080361968038123073 0 0 0 0.004333908332690593 0.020423150637855891 0.0020009461340964449 0 0.0020009461340964449 -0.00011808379112579264 0 0 0 0.0050762667116825274 0.019043183802507711 0.0011528865647246677 0 0.0011528865647246677 -0.0017370512972561111 0 0 0 0.0043265331263129007 0.020248567903809484 0.00067153931429665692 0 0.00067153931429665692 -0.0010858505993570021 0 0 0 0.0047906793261131182 0.019815764339542886 -0.00098793848127137806 0 -0.00098793848127137806 -0.0021266431605092852 0 0 0 0.0044222802947584024 0.02064265342005496 0.0016279008014148167 0 0.0016279008014148167 -0.0011684756030650671 0 0 0 0.0048685444542474685 0.022029212865880884 0.0019413496800761707 0 0.0019413496800761707 -0.0010893820382720631 0 0 0 0.0052349577069022123 -0.036725186530796775 -0.0026818075303099488 0 -0.0026818075303099488 -0.0015328845724084605 0 0 0 -0.0095645177758013084 -0.025531189201858248 -0.0070720812764637963 0 -0.0070720812764637963 -0.00071249080711184229 0 0 0 -0.0065609200022425252 -0.028229944578239734 -0.0033167140917218681 0 -0.0033167140917218681 -0.00023668512460771687 0 0 0 -0.0071166574257118644 -0.025117843384034822 -0.0046395828405874761 0 -0.0046395828405874761 0.0019857905259976086 0 0 0 -0.0057830132145093053 -0.022341408484956325 -0.0031352452159301774 0 -0.0031352452159301774 0.0017357638612718104 0 0 0 -0.00515141115592113 -0.021827452846988185 -0.0021353253652763877 0 -0.0021353253652763877 -0.0026571883431340121 0 0 0 -0.0061211602975305493 -0.020770059003938791 -0.0028048166911527864 0 -0.0028048166911527864 -0.0069098255895984955 0 0 0 -0.0069199711483843209 -0.021455797529417658 -0.003649250134111744 0 -0.003649250134111744 -0.00273303341995286 0 0 0 -0.0060472077373426277 -0.020934746877569008 -0.0062886737747860182 0 -0.0062886737747860182 -0.0019109576791138221 0 0 0 -0.0057114261391707074 -0.019130268609120055 -0.0066237737260965365 0 -0.0066237737260965365 -0.0012050033599229973 0 0 0 -0.0050838179922607649 -0.016427303472670907 -0.0066534851771691385 0 -0.0066534851771691385 -0.0054784037245219092 0 0 0 -0.0054764267992982044 -0.016423838575026255 -0.006655963482986217 0 -0.006655963482986217 -0.0054673468239329536 0 0 0 -0.0054727963497398025 -0.018376022360663415 -0.0078667345297182036 0 -0.0078667345297182036 -0.002277264172664193 0 0 0 -0.0051633216333319028 -0.012642864614436727 -0.0080959881733228822 0 -0.0080959881733228822 -0.00072340890047205286 0 0 0 -0.0033415683787271942 -0.020805697423362923 -0.0072966345845567248 0 -0.0072966345845567248 0.00032209174049106087 0 0 0 -0.0051209014207179689 -0.030044368653001523 -0.0073203240528453319 0 -0.0073203240528453319 -0.0012370850019732815 0 0 0 -0.0078203634137436959 -0.012062514568999509 -0.0096608306236562434 0 -0.0096608306236562434 -0.00058716253349178765 0 0 0 -0.0031624192756228298 -0.022178741228699308 -0.0088785418041669763 0 -0.0088785418041669763 -0.0021333206988951442 0 0 0 -0.0060780154818986139 -0.010705364468043448 -0.008308770469315864 0 -0.008308770469315864 -0.0018945145869685054 0 0 0 -0.0031499697637529882 -0.0084769531774767197 -0.008436687927067036 0 -0.008436687927067036 -0.0029500257486381257 0 0 0 -0.0028567447315287087 -0.010587466672969701 -0.010106596178994729 0 -0.010106596178994729 -0.0020968611574875866 0 0 0 -0.0031710819576143212 -0.0096025690041581773 -0.0092485250402943239 0 -0.0092485250402943239 -0.0012011070356619732 0 0 0 -0.0027009190099550381 -0.010182569471963809 -0.0087681082559152804 0 -0.0087681082559152804 -0.0026640048908364348 0 0 0 -0.0032116435907000606 -0.004296174781161244 -0.0076602958808909827 0 -0.0076602958808909827 -0.001436061235264826 0 0 0 -0.0014330590041065176 -0.0038912278999809168 -0.0090807225044672694 0 -0.0090807225044672694 -0.0024286552937800507 0 0 0 -0.001579970798440241 -0.0018442363899858088 -0.0072885284167200012 0 -0.0072885284167200012 -0.0010749773142506303 0 0 0 -0.00072980342605911052 -0.0021954681125098859 -0.0095878764644742754 0 -0.0095878764644742754 -0.0019911748647124805 0 0 0 -0.0010466607443055907 0.0021835285625351232 -0.0071796518823378534 0 -0.0071796518823378534 0.0007285578142592476 0 0 0 0.00072802159419859259 0.0060258727063855089 -0.0060322347231358577 0 -0.0060322347231358577 -0.00061954421715148048 0 0 0 0.0013515821223085071 0.0024991684472970791 -0.0091115273301348668 0 -0.0091115273301348668 -0.0029995904863495543 0 0 0 -0.00012510550976311922 0.00024513163375690806 -0.0090488917622805615 0 -0.0090488917622805615 -0.002978551903558644 0 0 0 -0.0006833550674504316 0.00058902064491209031 -0.0074155014179420921 0 -0.0074155014179420921 -0.0027550231896484156 0 0 0 -0.00054150063618408099 0.0060053796714427538 -0.0088591185512608018 0 -0.0088591185512608018 -0.0050074608021732428 0 0 0 0.00024947971731737947 0.0094726204447252438 -0.0072278732648052178 0 -0.0072278732648052178 -0.0033557204158006044 0 0 0 0.0015292250072311579 0.00085700476079724093 -0.010436095279767445 0 -0.010436095279767445 -0.0050480135421574548 0 0 0 -0.0010477521953400539 0.0089601447689860239 -0.0089427294675888582 0 -0.0089427294675888582 -0.0050178055327035655 0 0 0 0.00098558480907061548 0.0012386907703523587 -0.0093452710373987738 0 -0.0093452710373987738 -0.0017059879715785953 0 0 0 -0.0001168243003065591 -0.0019880928231976232 -0.011884855045312781 0 -0.011884855045312781 -0.0038501992803290294 0 0 0 -0.0014595730258816636 0.0082497762825864702 -0.008076199341924592 0 -0.008076199341924592 -0.0021054785677280564 0 0 0 0.0015360744287146039 -0.0014996436935474713 -0.010720581243321873 0 -0.010720581243321873 -0.0020407785420442984 0 0 0 -0.00088510555889794069 9.2015163808000129e-05 -0.012815026824404996 0 -0.012815026824404996 -0.00132239217585098 0 0 0 -0.00030759425301074474 -0.013192929121502961 -0.011084138596057084 0 -0.011084138596057084 -0.0042123332841414972 0 0 0 -0.0043513156014111116 -0.011725775318641225 -0.011675783366585781 0 -0.011675783366585781 -0.0028485691533326404 0 0 0 -0.0036435861179934682 -0.012597260522441924 -0.0095212880954471599 0 -0.0095212880954471599 -0.0011001623792769102 0 0 0 -0.0034243557254297063 -0.0010067475099650447 -0.0092359120128765494 0 -0.0092359120128765494 -0.0017346098848211519 0 0 0 -0.00068533934869654915 -0.007663102692998594 -0.01034894127947257 0 -0.01034894127947257 -0.0035529136983974176 0 0 0 -0.002804004097849002 -0.02018675771918594 -0.0097759369272727159 0 -0.0097759369272727159 -0.0020895236272456159 0 0 0 -0.005569070336607888 -0.018879919260871202 -0.0088912904147658185 0 -0.0088912904147658185 0.00068236720486664071 0 0 0 -0.0045493880140011368 -0.026753415485894723 -0.008220127421781416 0 -0.008220127421781416 -0.00012190750213221871 0 0 0 -0.0067188307470067389 -0.020311097135280579 -0.012084116598404143 0 -0.012084116598404143 -0.00029706624859311692 0 0 0 -0.0051520408459684221 -0.025697520499522557 -0.0092978637057219444 0 -0.0092978637057219444 -0.0023256003769930381 0 0 0 -0.0070057802191288952 -0.014048239855918673 -0.013666783857206644 0 -0.013666783857206644 -0.00064394239281186094 0 0 0 -0.0036730455621826362 -0.025541525634469507 -0.01061930661240258 0 -0.01061930661240258 0.001052664503419622 0 0 0 -0.0061222152827624709 -0.04018506392627752 -0.007478394791817021 0 -0.007478394791817021 -0.0022752985741322576 0 0 0 -0.01061509062510245 -0.043458245355212227 -0.0087577185025872473 0 -0.0087577185025872473 -0.0011692824948113215 0 0 0 -0.011156881962505886 -0.053216887038493164 -0.0048383773330415948 0 -0.0048383773330415948 -0.00036267684887346212 0 0 0 -0.013394890971841659 -0.038026908755155055 -0.0038603640660449592 0 -0.0038603640660449592 9.0409197887685033e-05 0 0 0 -0.0094841248893168528 -0.044448373171472884 -0.0044573580612977054 0 -0.0044573580612977054 -0.00037803490853349688 0 0 0 -0.011206602020001588 -0.027395340956945437 -0.0087692607415764505 0 -0.0087692607415764505 -0.00034571517723382995 0 0 0 -0.006935264033544811 -0.037449128405739093 -0.0034942165837329813 0 -0.0034942165837329813 -0.0021186466289478886 0 0 0 -0.0098919437586717472 -0.027868610851259905 -0.0058221078432568003 0 -0.0058221078432568003 0.0014264139753461507 0 0 0 -0.0066105492189784398 -0.056687527509239888 -0.0041372903956236988 0 -0.0041372903956236988 0.0025786148478196998 0 0 0 -0.013527228165355027 -0.082638957285564529 -0.00046374924874149903 0 -0.00046374924874149903 -2.7838951095843223e-05 0 0 0 -0.020666699059165097 -0.052774791923724078 -0.0095171833290587041 0 -0.0095171833290587041 0.0027439829361401435 0 0 0 -0.012507702246895992 -0.052235674577282461 -0.0022298638316939623 0 -0.0022298638316939623 0.0010852340906996258 0 0 0 -0.012787610121645716 -0.071460634735851972 -0.0035364669343891254 0 -0.0035364669343891254 0.00099603628099070168 0 0 0 -0.017616149613715316 -0.061212467326706571 -0.0044826362334529244 0 -0.0044826362334529244 -0.00012627796592393561 0 0 0 -0.015334686323157624 -0.041488858962610072 -0.0047763539443967887 0 -0.0047763539443967887 0.0007647854819817293 0 0 0 -0.010181018370157089 -0.048064828066229137 -0.0039714531297416781 0 -0.0039714531297416781 0.00067262496384058734 0 0 0 -0.011848050775597136 -0.046033920107038821 -0.010497276142485126 0 -0.010497276142485126 0.001545675405035269 0 0 0 -0.011122061175500882 -0.027221346715831419 -0.011005886366193781 0 -0.011005886366193781 0.0016620990032864616 0 0 0 -0.0063898119281362411 -0.027719941387509581 -0.010618087176543811 0 -0.010618087176543811 -0.000311101597875783 0 0 0 -0.0070077607463463389 -0.018548513947497659 -0.010507607925481331 0 -0.010507607925481331 -0.0029758930794331045 0 0 0 -0.0053811017567326888 -0.027310434236387938 -0.014262838790149354 0 -0.014262838790149354 0.0039164321673387653 0 0 0 -0.005848500517262295 -0.03611263837816292 -0.0068905660067716604 0 -0.0068905660067716604 0.0010402234694673121 0 0 0 -0.0087681037271739003 -0.03026658327923162 -0.0049606897681397505 0 -0.0049606897681397505 0.003650269030794487 0 0 0 -0.0066540785621092939 -0.0068047261906828676 -0.011083326734042151 0 -0.011083326734042151 0.0049010076744090136 0 0 0 -0.00047592962906846392 -0.0041718003113691247 -0.0097716454950415935 0 -0.0097716454950415935 0.01228706300357426 0 0 0 0.0020288156730512846 0.006172763511190978 -0.013599153589557236 0 -0.013599153589557236 0.0032650534042414081 0 0 0 0.0023594542288580978 -0.022346353784412791 -0.0099000800304648584 0 -0.0099000800304648584 0.0049771812787242214 0 0 0 -0.0043422931264221389 -0.0088342451303212166 -0.013318168981248065 0 -0.013318168981248065 0.0022033282340630563 0 0 0 -0.0016577292240645375 -0.020787222286766827 -0.014527154759468169 0 -0.014527154759468169 0.00040125688671259474 0 0 0 -0.0050964913500135562 -0.009539931989079143 -0.015076877257207673 0 -0.015076877257207673 -0.0016548708436069494 0 0 0 -0.0027987007081715222 -0.0072437836975564477 -0.011377382778705473 0 -0.011377382778705473 8.2554795366035494e-06 0 0 0 -0.0018088820545049617 0.0033500575696773028 -0.013787669468489364 0 -0.013787669468489364 0.00036746637747240608 0 0 0 0.00092938098678742743 -0.0084706887233518546 -0.011268848864150688 0 -0.011268848864150688 0.002066529206090767 0 0 0 -0.0016010398793152693 0.0039326831938987384 -0.0099888582596290749 0 -0.0099888582596290749 0.00019280219057790822 0 0 0 0.0010313713461191617 0.015495449070313925 -0.012096653549716736 0 -0.012096653549716736 0.00052022243836860951 0 0 0 0.0040039178771706339 0.010626912721898451 -0.011709831286884149 0 -0.011709831286884149 -0.0015526793457397384 0 0 0 0.0022685583440396804 0.020923561006980219 -0.0092036777342538005 0 -0.0092036777342538005 -0.00083940927237898411 0 0 0 0.0050210379336503054 0.010805147976467339 -0.007932703128667536 0 -0.007932703128667536 -0.0019845941758645166 0 0 0 0.0022051384501507051 0.016310041458447833 -0.0070234119437901496 0 -0.0070234119437901496 0.0026816664989873056 0 0 0 0.0047479269893587863 0.027414058709415365 -0.0098672781705121462 0 -0.0098672781705121462 0.0044568953132856082 0 0 0 0.0079677385056752432 0.0074454905619006952 -0.0096373601997809082 0 -0.0096373601997809082 0.0063748829056813339 0 0 0 0.0034550933668955081 0.02156172607043548 -0.011716419656854299 0 -0.011716419656854299 0.0075309234132689834 0 0 0 0.0072731623709261159 0.021152191030895787 -0.0060215107546273943 0 -0.0060215107546273943 0.011359472934418829 0 0 0 0.008127915991328654 0.032427770484551567 -0.00268129585203262 0 -0.00268129585203262 0.023738942995713289 0 0 0 0.014041678370066223 0.037265235718471443 -0.010109940911513432 0 -0.010109940911513432 0.017395244407390945 0 0 0 0.013665120031465607 0.011357019039420258 -0.0065138595023508383 0 -0.0065138595023508383 0.014939275506865926 0 0 0 0.0065740736365715452 0.0058403145659945074 -0.014125274984992036 0 -0.014125274984992036 0.016554171324155403 0 0 0 0.0055986214725374794 0.023976841762526735 -0.013842756529483462 0 -0.013842756529483462 0.035427388719841829 0 0 0 0.014851057620592134 0.034061968010713151 -0.0077738686268067139 0 -0.0077738686268067139 0.066855773130552076 0 0 0 0.025229435285316321 0.034887787045130236 0.010987540767312204 0 0.010987540767312204 0.056190043392446654 0 0 0 0.022769457609394226 0.028760885821056514 0.0092534293296971139 0 0.0092534293296971139 0.070065360431538992 0 0 0 0.024706561563148904 0.020581512498391213 0.0074726699713073552 0 0.0074726699713073552 0.042984779678508556 0 0 0 0.015891573044224977 0.010275568067059079 -0.0053839010736703649 0 -0.0053839010736703649 0.032626812696887886 0 0 0 0.010725595190986731 0.018666872001632175 0.00063570813819555094 0 0.00063570813819555094 0.034380899181302139 0 0 0 0.013261942795733582 0.0022013520832018726 0.013213175371380392 0 0.013213175371380392 0.037842877308009934 0 0 0 0.01001105734780295 -0.0079764760120955847 0.0065304382337976891 0 0.0065304382337976891 0.020193096771873031 0 0 0 0.0030541551899443409 -0.018184281967837404 0.0092586245414687518 0 0.0092586245414687518 0.027070460120478229 0 0 0 0.0022215445381602167 -0.010120135810247413 -0.0043704022345565276 0 -0.0043704022345565276 0.011389807600341084 0 0 0 0.00031741794752343511 -0.022120809202971051 -0.00090975431686958486 0 -0.00090975431686958486 0.012317021336742404 0 0 0 -0.0024509469665571597 -0.003513624296730633 -0.0030927040642349871 0 -0.0030927040642349871 0.031564540909246167 0 0 0 0.0070127291531288799 -0.020690637132484729 -0.011608740474534869 0 -0.011608740474534869 0.013987764047686896 0 0 0 -0.0016757182711994653 -0.038043277679756918 -0.0095894229034076059 0 -0.0095894229034076059 0.0059399672916418678 0 0 0 -0.008025827597028759 -0.041149302537667312 -0.00052221271733950136 0 -0.00052221271733950136 0.0055462417836874278 0 0 0 -0.0089007651884949884 -0.028499710475505188 -0.007228310188780368 0 -0.007228310188780368 0.011426463384580032 0 0 0 -0.0042683117727313064 -0.037369828432314831 0.0062645862993241375 0 0.0062645862993241375 0.011527530899032502 0 0 0 -0.0064605743833205821 -0.025329698481652785 0.0045319972674462555 0 0.0045319972674462555 0.006801707410863278 0 0 0 -0.0046319977676973489 -0.047328606031811375 0.010876620977762402 0 0.010876620977762402 0.0051903951257548306 0 0 0 -0.010534552726514122 -0.038885408232981644 0.0058659491117964147 0 0.0058659491117964147 0.014609751878523591 0 0 0 -0.006068914088614541 -0.041769968076265013 8.9330136541193594e-05 0 8.9330136541193594e-05 0.0051185400542353987 0 0 0 -0.0091628570055074243 -0.057933711874507438 0.0040549424566736769 0 0.0040549424566736769 0.005147506702243565 0 0 0 -0.013196551293065975 -0.055907647627155749 0.0011832780882703453 0 0.0011832780882703453 0.0022394523626574903 0 0 0 -0.013417048816124544 -0.083956579936536796 0.0020247064067048515 0 0.0020247064067048515 0.0032436659453513594 0 0 0 -0.020178228497796366 -0.061857607571606486 -0.0010129405588877038 0 -0.0010129405588877038 0.0014783503475223059 0 0 0 -0.015094814306021061 -0.087673488926843623 -0.0023493513483514444 0 -0.0023493513483514444 0.0020675231543711703 0 0 0 -0.021401491443118127 -0.064288670707646725 0.0010955693329201613 0 0.0010955693329201613 6.0037098255111276e-05 0 0 0 -0.016057158402347907 -0.051064014292203724 -0.0063489469670463122 0 -0.0063489469670463122 0.0035664174112197203 0 0 0 -0.011874399220245999 -0.06124361779923259 -0.007116014483704608 0 -0.007116014483704608 0.0024584324358085663 0 0 0 -0.014696296340856001 0.026402000602621663 0.0091460400653615194 0 0.0091460400653615194 0.014282732351015362 0 0 0 0.01017118323840926 0.027993949887966676 0.0099296108440048922 0 0.0099296108440048922 0.018046345231064041 0 0 0 0.011510073779757683 0.028988806396139728 0.010441792867374209 0 0.010441792867374209 0.018342704418719786 0 0 0 0.011832877703714875 0.022718961582618477 0.0085835284895742492 0 0.0085835284895742492 0.022285090209675125 0 0 0 0.011251012948073407 0.017079426543560004 0.0058278205077041236 0 0.0058278205077041236 0.024181307244068893 0 0 0 0.010315183446907225 0.019263379179173978 0.0067317473448514301 0 0.0067317473448514301 0.014726806055776805 0 0 0 0.0084975463087376846 0.013585337615297861 0.0038165221382592245 0 0.0038165221382592245 0.016173254413465579 0 0 0 0.0074396480071908635 0.022850895062457039 0.0078891995543259735 0 0.0078891995543259735 0.015964999588328904 0 0 0 0.0097039736626964995 0.018234118757987069 0.0050811077849890075 0 0.0050811077849890075 0.0091345820926313631 0 0 0 0.0068421752126546064 0.018318077827379715 0.0056935033758866854 0 0.0056935033758866854 0.013205379811719946 0 0 0 0.0078808644097749236 0.018351870022250652 0.0042067950984244927 0 0.0042067950984244927 0.0047551476804539097 0 0 0 0.0057767544256761361 0.021578992848072437 0.0064659413617719919 0 0.0064659413617719919 0.0096773465669132332 0 0 0 0.0078140848537464162 0.022518832130811257 0.0052622550489318087 0 0.0052622550489318087 0.0041742837687383585 0 0 0 0.0066732789748873977 0.022292741935330242 0.0063831088257094021 0 0.0063831088257094021 0.010253323041449451 0 0 0 0.0081365162441949246 0.025892339627954692 0.007518729787233577 0 0.007518729787233577 0.0089099970756340192 0 0 0 0.0087005841758971796 0.027044420783599116 0.0045996135067965255 0 0.0045996135067965255 0.0035025384411097125 0 0 0 0.0076367398061772101 0.02428624268873588 0.0037765216406038023 0 0.0037765216406038023 0.0031903680832027683 0 0 0 0.0068691526929846695 0.023371672355936242 -0.0015081867113319739 0 -0.0015081867113319739 -0.0015016818626999394 0 0 0 0.0054674976233090745 0.029549421014425807 0.00096632031875768659 0 0.00096632031875768659 0.0038073814451268229 0 0 0 0.0083392006148881506 0.02851156484642782 0.0016911597303082108 0 0.0016911597303082108 0.0022897464459768349 0 0 0 0.0077003278231011635 0.02945704877571384 0.006641550401561145 0 0.006641550401561145 0.008532035441008376 0 0 0 0.0094972710541805522 0.021901630134804135 -0.0037775387272358414 0 -0.0037775387272358414 -0.00031195784042908859 0 0 0 0.0053974180735937545 0.026833536143978917 -0.0052058586811934929 0 -0.0052058586811934929 0.00085811248275245722 0 0 0 0.0069229121566828419 0.029548163791711685 -0.0010519730275265586 0 -0.0010519730275265586 0.0057197261006979618 0 0 0 0.0088169724731024142 0.033940357039405879 -0.0032226599413589354 0 -0.0032226599413589354 0.009892748232966965 0 0 0 0.010958276318093211 0.039652600379657392 0.0033362930158866988 0 0.0033362930158866988 0.016100845403056306 0 0 0 0.013938361445678431 0.033223250923433721 0.0070136494684118374 0 0.0070136494684118374 0.0095337779920260362 0 0 0 0.010689257228864942 0.038054873357631212 0.0049679844968100028 0 0.0049679844968100028 0.0086020847235212181 0 0 0 0.011664239520288108 0.032781669424852437 0.0067825141788362912 0 0.0067825141788362912 0.014304526530265316 0 0 0 0.011771548988779443 0.041410702650238593 0.0085280098771853864 0 0.0085280098771853864 0.016331829890177178 0 0 0 0.014435633135103945 0.035175798746071664 0.013733036727390013 0 0.013733036727390013 0.031862579583365414 0 0 0 0.016759594582359275 0.053205995684581134 0.014962884259410706 0 0.014962884259410706 0.030180556616434845 0 0 0 0.020846638075253998 0.043469608143540686 0.014055188202994309 0 0.014055188202994309 0.048050766042558521 0 0 0 0.022880093546524788 0.032449313883098928 0.015150800074266217 0 0.015150800074266217 0.049228682348559274 0 0 0 0.020419499057914549 0.038065548330945803 0.012284077117741963 0 0.012284077117741963 0.032863425224900211 0 0 0 0.017732243388961511 0.05203538789835771 -0.0020491549881659285 0 -0.0020491549881659285 0.025794782292349022 0 0 0 0.019457542547676687 0.053324474405065256 0.0050947803097076139 0 0.0050947803097076139 0.041841923612439672 0 0 0 0.023791599504376221 0.055542492762941792 -0.0099215673165149107 0 -0.0099215673165149107 0.035685848030205969 0 0 0 0.022807085198286947 0.10124939224267401 -0.0057986890246157427 0 -0.0057986890246157427 0.062350505930602651 0 0 0 0.04089997454331918 0.066605169194597788 -0.0021976939468183465 0 -0.0021976939468183465 0.13909773565830336 0 0 0 0.051425726213225262 0.095727009333320345 0.0436585169998428 0 0.0436585169998428 0.09895106300844804 0 0 0 0.048669518085442086 0.045726250978659386 0.024228883792023086 0 0.024228883792023086 0.083100034538508477 0 0 0 0.032206571379291962 0.020581276848267344 0.0092891057911771921 0 0.0092891057911771921 0.046593853123671009 0 0 0 0.016793782492984567 0.043493910508624986 0.015721946687978404 0 0.015721946687978404 0.048602895533882556 0 0 0 0.023024201510626882 0.022432999879205828 -0.011672168388720351 0 -0.011672168388720351 0.095435056985786457 0 0 0 0.029467014216248047 0.014355740381800609 -0.012383061095530164 0 -0.012383061095530164 0.049512155998772858 0 0 0 0.015966974095143353 0.015545973054310802 -0.012032637425201911 0 -0.012032637425201911 0.054835177286233154 0 0 0 0.017595287585135989 0.022458318595274664 0.0085380432064913851 0 0.0085380432064913851 0.051527259467156875 0 0 0 0.018496394515607886 0.022211578535523951 0.0090711148508409722 0 0.0090711148508409722 0.029392529621938945 0 0 0 0.012901027039365718 0.019644220481973011 0.0065110305163094823 0 0.0065110305163094823 0.046691129986415579 0 0 0 0.016583837617097145 0.012078195032971435 0.0018377627380746604 0 0.0018377627380746604 0.029498817905593198 0 0 0 0.01039425323464116 0.019112209438408488 0.0070271031853174053 0 0.0070271031853174053 0.03689570714324486 0 0 0 0.014001979145413334 0.020043320646580688 0.0079436333946578241 0 0.0079436333946578241 0.021073663856874061 0 0 0 0.010279246125863681 0.025936666760980064 0.01187402291312965 0 0.01187402291312965 0.032721088608139423 0 0 0 0.014664438842279862 0.012424051351357141 0.003586578966462136 0 0.003586578966462136 0.021523089162395002 0 0 0 0.0084867851284380381 0.013523574442657079 0.0024872418333955165 0 0.0024872418333955165 0.030388665428210632 0 0 0 0.010978059967716928 0.013629113324683768 -0.011429009251958732 0 -0.011429009251958732 0.032946280241247003 0 0 0 0.011643848391482688 0.010398442596621595 -0.0043847494627484631 0 -0.0043847494627484631 0.029812160907749123 0 0 0 0.010052650876092679 0.008102822118672616 -0.0030265039128744104 0 -0.0030265039128744104 0.026118439213016688 0 0 0 0.0085553153329223294 0.014001430568660964 -0.00020841633110212782 0 -0.00020841633110212782 0.040380823951484866 0 0 0 0.013595563630036455 0.012051712846311544 -0.010380087001487286 0 -0.010380087001487286 0.024478917173253248 0 0 0 0.0091326575048912007 0.01037053898827793 -0.010903328810364137 0 -0.010903328810364137 0.018794091946664107 0 0 0 0.0072911577337355059 0.018780971213638649 -0.016417871748126638 0 -0.016417871748126638 0.021300842182631445 0 0 0 0.010020453349067515 0.014829215762153805 -0.015756273663031537 0 -0.015756273663031537 0.0069578106293438635 0 0 0 0.0054467565978744137 0.011779141333569984 -0.011617592897441652 0 -0.011617592897441652 0.0067563030241347133 0 0 0 0.0046338610894261778 0.018688235573633395 -0.013981140810744114 0 -0.013981140810744114 0.0087775390917183317 0 0 0 0.0068664436663379343 0.018491223926044728 -0.01343036632935107 0 -0.01343036632935107 0.0082139045052907755 0 0 0 0.0066762821078338863 0.015296662768030871 -0.011224189323681341 0 -0.011224189323681341 0.00047816447418144725 0 0 0 0.0039437068105530812 0.024336468785246798 -0.0074135096280849248 0 -0.0074135096280849248 -0.0019248772090195154 0 0 0 0.0056028978940568241 0.020855706253565219 -0.0096877509736494061 0 -0.0096877509736494061 -0.0074006594206528498 0 0 0 0.003363761708228101 0.024823255611022457 -0.012986101740321401 0 -0.012986101740321401 -0.0010696243590127552 0 0 0 0.005938407813002422 0.033932694272721019 -0.022394935155934888 0 -0.022394935155934888 0.013380068412247453 0 0 0 0.011828190671242099 0.012318873687239789 -0.012316341254827624 0 -0.012316341254827624 0.031164520969549914 0 0 0 0.01087084866419742 0.019619303507446458 -0.018751672378675643 0 -0.018751672378675643 0.018088482770063197 0 0 0 0.0094269465693774118 0.020494212031562146 -0.020318604353697645 0 -0.020318604353697645 0.025701725571122113 0 0 0 0.011548984400671066 0.02269087295313385 -0.024820640663719137 0 -0.024820640663719137 0.042371533653039528 0 0 0 0.016265601651543324 0.012228089370416483 -0.022801874350885591 0 -0.022801874350885591 0.059511552033984769 0 0 0 0.01793491035110031 0.028490839390014927 -0.021308694782960658 0 -0.021308694782960658 0.057512705256049332 0 0 0 0.021500886161516075 0.043432104432385085 -0.0084104142677366069 0 -0.0084104142677366069 0.17542376001088095 0 0 0 0.054713966110816512 0.034175103491031623 -0.0085567025889462314 0 -0.0085567025889462314 -0.011608112662501738 0 0 0 0.0056417477071324731 0.047484401977808441 -0.0334544085153482 0 -0.0334544085153482 0.032034625328790298 0 0 0 0.019879756826649664 0.089093651032270904 0.063483356270375824 0 0.063483356270375824 0.11543877627680232 0 0 0 0.051133106827268321 0.050061655339241444 -0.046769737328410332 0 -0.046769737328410332 0.074129302429133376 0 0 0 0.031047739442093707 0.0034524400963094567 0.00058344131118260624 0 0.00058344131118260624 0.0094027312100586555 0 0 0 0.0032137928265920279 0.14770440908898066 0.054870844565139645 0 0.054870844565139645 0.031648269947122665 0 0 0 0.044838169759025825 0.073253741248092641 0.015077182758526153 0 0.015077182758526153 0.012803825757844112 0 0 0 0.021514391751484174 0.0079155135788097023 0.0013793693090581737 0 0.0013793693090581737 0.023867676830536158 0 0 0 0.0079457976023364647 0.0012247504731046355 0.00066470962615376716 0 0.00066470962615376716 0.017718704997296247 0 0 0 0.0047358638676002068 0.067694846055479554 0.013906978908715562 0 0.013906978908715562 0.014636503012807389 0 0 0 0.020582837267071736 0.011205122757427364 0.0019641285169471707 0 0.0019641285169471707 0.033502389168629604 0 0 0 0.011176877981514241 0.0033596932437444382 0.0040020883850725442 0 0.0040020883850725442 0.020984526829672806 0 0 0 0.0060860550183543249 0.049651462469931684 0.011437900773568599 0 0.011437900773568599 0.0044206425931976323 0 0 0 0.013518026265782357 0.025711724478172764 -0.011922401105721105 0 -0.011922401105721105 -0.010878136925569909 0 0 0 0.0037083968881507293 0.022093517789381935 0.0020167803832580045 0 0.0020167803832580045 0.0092646885120534761 0 0 0 0.007839551575358851 0.021267851120016043 -0.0052883731356548674 0 -0.0052883731356548674 0.003478238106729703 0 0 0 0.00618652230668644 0.022587264314177846 -0.0019675219139211053 0 -0.0019675219139211053 -0.0033534523934893312 0 0 0 0.004808452980172101 0.013652438925494732 0.0027976393989947168 0 0.0027976393989947168 0.0014688397160361744 0 0 0 0.003780319660382718 0.018912246206031047 0.0023573610322852982 0 0.0023573610322852982 0.019206130088693929 0 0 0 0.0095295940736812579 0.012185117206660032 0.0046792087074532807 0 0.0046792087074532807 0.024214741115547445 0 0 0 0.0090999645805518586 0.020381035847411952 0.00033486957155751118 0 0.00033486957155751118 0.00057465415549401433 0 0 0 0.0052389225007264811 0.042119141820870509 0.0098411069324141134 0 0.0098411069324141134 0.0034070629816898013 0 0 0 0.011381551200640105 0.048169022114195659 0.0065934588061364874 0 0.0065934588061364874 0.023492405941060834 0 0 0 0.017915357013814082 0.054566636623745834 0.0053561401372645423 0 0.0053561401372645423 0.022090072789908932 0 0 0 0.019164177353413636 0.01395548488464398 0.0023527296465555327 0 0.0023527296465555327 0.041820159916788016 0 0 0 0.013943911200358001 0.046286353559362892 0.0052241422156127371 0 0.0052241422156127371 0.024939266609629973 0 0 0 0.017806405042248175 0.045345090465072402 0.0041672913261919242 0 0.0041672913261919242 0.021097025110458745 0 0 0 0.016610528893882814 0.037817982153774465 0.0089257187511210256 0 0.0089257187511210256 0.020732603673155436 0 0 0 0.014637646456732434 0.043581785556975339 0.004369043652554477 0 0.004369043652554477 0.028987212485549918 0 0 0 0.01814224951063137 0.018406050608520103 0.0051211964631490041 0 0.0051211964631490041 0.034028751559058046 0 0 0 0.013108700541894558 0.016604750530062974 0.0026436903562575527 0 0.0026436903562575527 0.049753836567587709 0 0 0 0.016589646774412672 0.039498914272163732 0.0036321007410277106 0 0.0036321007410277106 0.027812087952524989 0 0 0 0.016827750556172083 0.015219969122221802 0.0040284549807774322 0 0.0040284549807774322 0.0087694042812984097 0 0 0 0.0059973433508800494 0.016113064401582347 0.0036417723091868998 0 0.0036417723091868998 -0.00084056530147968989 0 0 0 0.0038181247750256608 0.021056205979110329 0.0030747517128273671 0 0.0030747517128273671 0.02675073033056391 0 0 0 0.011951734077418577 0.018572527714184335 0.0041673377000424616 0 0.0041673377000424616 0.0095112938284917237 0 0 0 0.0070209553856689991 0.018523777085013224 0.0056741879656544147 0 0.0056741879656544147 0.012178280481400267 0 0 0 0.007675514391603383 0.014909075923571311 0.0044299290701714771 0 0.0044299290701714771 -0.0024491007796617614 0 0 0 0.0031149937859773907 0.014720351566689924 0.0043582564971967053 0 0.0043582564971967053 -0.0022578330440991556 0 0 0 0.0031156296306476955 0.01759961794426939 0.0022864132224143796 0 0.0022864132224143796 -0.0020191645710142814 0 0 0 0.0038951133433137528 0.017108879485312478 -0.0012503752137320578 0 -0.0012503752137320578 -0.005651616670192372 0 0 0 0.0028643157037800404 0.015825973557617695 0.0008909464807330264 0 0.0008909464807330264 -0.0071636882194134888 0 0 0 0.0021655713345510585 0.012077107721741032 0.0018392534223627272 0 0.0018392534223627272 -0.0065096466709748703 0 0 0 0.0013918652626915403 0.015204594108785802 -0.00027190449675978945 0 -0.00027190449675978945 -0.0018531681655681864 0 0 0 0.0033378564858043969 0.01511423924772623 -0.0039443003399393176 0 -0.0039443003399393176 -0.0029110094001442155 0 0 0 0.0030508074618955106 0.016600483576197488 -0.0014707015310513327 0 -0.0014707015310513327 -0.0045803189706858718 0 0 0 0.0030050411513778937 0.019170974815939559 -0.0057316586668235796 0 -0.0057316586668235796 -0.0056972038304627937 0 0 0 0.0033684427463692018 0.015051398209882383 -0.0061435557637322114 0 -0.0061435557637322114 -0.0050948490524274914 0 0 0 0.0024891372893637159 0.01962404174423564 -0.008567155455906663 0 -0.008567155455906663 -0.00077830637533460312 0 0 0 0.0047114338422252766 0.015310604972717166 -0.0088745837558047158 0 -0.0088745837558047158 -5.7743416797473995e-05 0 0 0 0.003813215388979916 0.018183525858319526 -0.0051677024367841745 0 -0.0051677024367841745 -0.0070875996238000741 0 0 0 0.0027739815586298663 0.017596681410827208 -0.00095014061967661767 0 -0.00095014061967661767 -0.0085324328039941555 0 0 0 0.0022660621517082979 0.021080819437542503 -0.0032996062654904734 0 -0.0032996062654904734 -0.004854767176644792 0 0 0 0.0040565130652244347 -0.043296947377790829 0.0053705407544475947 0 0.0053705407544475947 9.8982365370592351e-05 0 0 0 -0.010799491253105031 -0.049497150106627835 0.0065879613858605413 0 0.0065879613858605413 0.00062973906909080668 0 0 0 -0.01221685275938425 -0.03508307541803013 0.01631681423476912 0 0.01631681423476912 0.0051013482245796382 0 0 0 -0.0074954317983626506 -0.06790368085056947 0.0071730226613682391 0 0.0071730226613682391 0.00091268200057492699 0 0 0 -0.016747749712498566 -0.072452627725194688 0.0055921491448192029 0 0.0055921491448192029 0.0031170747382702202 0 0 0 -0.017333888246731155 -0.044598344328828365 0.0075170774858306921 0 0.0075170774858306921 4.1810144020826279e-05 0 0 0 -0.011139133546201829 -0.04560851146700988 0.0085996966587340018 0 0.0085996966587340018 0.001681149846397112 0 0 0 -0.010981840405153195 -0.033192323877232061 0.017744286390442288 0 0.017744286390442288 0.0072205728190012364 0 0 0 -0.0064929377645576714 -0.020647286621804595 0.018288279321895362 0 0.018288279321895362 0.0084827219599725168 0 0 0 -0.0030411411654580611 -0.011894709936574877 0.022843246336772191 0 0.022843246336772191 0.014827602725378974 0 0 0 0.00073322319720098283 -0.020197955083689378 0.015814070240791997 0 0.015814070240791997 0.00096983562738883755 0 0 0 -0.004807029864075052 -0.015031720780186164 0.022907460843599681 0 0.022907460843599681 0.0056987574651251038 0 0 0 -0.0023332408287652928 -0.027864154179322642 0.013656992562096598 0 0.013656992562096598 -0.00090163076216764892 0 0 0 -0.0071914462353724895 -0.010815235213922414 0.019629900823251473 0 0.019629900823251473 -0.001581427091732035 0 0 0 -0.0030991655764135984 0.019905856815281037 0.026857808724938315 0 0.026857808724938315 0.0037008682338300902 0 0 0 0.0059016812622777748 0.0043214563943793083 0.023878817687454777 0 0.023878817687454777 0.0009220475518487703 0 0 0 0.0013108759865569919 0.028815051963937056 0.034409492548792331 0 0.034409492548792331 0.017594691914970539 0 0 0 0.011602435969726911 0.0051222918776345217 0.025705030268616424 0 0.025705030268616424 0.0053544318564821003 0 0 0 0.0026191809335291416 -0.018655253703173336 0.015754142404565172 0 0.015754142404565172 0.0079534767642192028 0 0 0 -0.0026754442347385332 -0.00080358386924175851 0.02675353149379861 0 0.02675353149379861 0.026916780229229498 0 0 0 0.0065282990899969418 0.0027003967378583515 0.022794549007583209 0 0.022794549007583209 0.015857090246057526 0 0 0 0.0046393717459789208 0.022925429533460523 0.034605071750765576 0 0.034605071750765576 0.045801297131141006 0 0 0 0.017181681666150389 0.032391263150625738 0.036743650568537761 0 0.036743650568537761 0.075776738824924861 0 0 0 0.027042000493887663 0.050947198838897492 0.044013202381176009 0 0.044013202381176009 0.025699187012369638 0 0 0 0.019161596462816774 0.053927753477241172 0.035893983318000255 0 0.035893983318000255 0.024073641300883561 0 0 0 0.019500348694531169 0.03290553288316006 0.024587155562220339 0 0.024587155562220339 0.0028666677375213112 0 0 0 0.008943050155170329 0.041847394074153006 0.025904667487477162 0 0.025904667487477162 0.0052315712762689981 0 0 0 0.011769741337605506 0.051454359294957286 0.012109315603714088 0 0.012109315603714088 0.0026530830124982252 0 0 0 0.013526860576863864 0.026827685657413392 0.019089205926431374 0 0.019089205926431374 -0.0031967731700779378 0 0 0 0.0059077281218338218 0.024670253044261903 0.018755724354141301 0 0.018755724354141301 -0.0038693044441435731 0 0 0 0.0052002371500295408 0.037763068615535578 0.012992450865778216 0 0.012992450865778216 0.0015232951492261115 0 0 0 0.0098215909411904501 0.034938066547684221 0.010572302835417768 0 0.010572302835417768 0.0029847192220270324 0 0 0 0.0094806964424278273 0.034213346620573903 0.0082632172935212522 0 0.0082632172935212522 0.005350632424793611 0 0 0 0.0098909947613419202 0.02810153858825681 0.0097680501088884819 0 0.0097680501088884819 0.0033142829663514945 0 0 0 0.0078539553886520768 0.02293235175084804 0.012840475851113253 0 0.012840475851113253 -0.0026523458275815037 0 0 0 0.0050700014808164606 0.023398865119890366 0.015909298756504667 0 0.015909298756504667 -0.0031418929624502656 0 0 0 0.005064243039359928 0.0096966649558129919 0.013733802082148916 0 0.013733802082148916 -0.0042360625197424007 0 0 0 0.0013651506090176374 0.010284786874922881 0.012969386506419656 0 0.012969386506419656 -0.0039154413834636137 0 0 0 0.0015923363728648568 0.0098703345491729655 0.014632119119798948 0 0.014632119119798948 -0.001718194795545358 0 0 0 0.0020380349384069296 -0.0040827946028445528 0.017291609491038529 0 0.017291609491038529 -0.0039738861311220397 0 0 0 -0.0020141701834915926 0.011733687607213938 0.019236440316859255 0 0.019236440316859255 -0.0015431960574454617 0 0 0 0.0025476228874421469 0.016056367468718427 0.015904525041294248 0 0.015904525041294248 -0.005445591751324641 0 0 0 0.0026526939293485402 0.0014854572783742914 0.019170319110555722 0 0.019170319110555722 -0.0042719071130927766 0 0 0 -0.00069661245867957966 -0.0025424453789589865 0.022664160280190859 0 0.022664160280190859 0.00011552317469135098 0 0 0 -0.00060673055106692103 -0.013862730227382325 0.015108174743014152 0 0.015108174743014152 -0.0032717449132242393 0 0 0 -0.0042836187851515439 -0.017678825634436447 0.017681681245809155 0 0.017681681245809155 0.0020906807115942672 0 0 0 -0.0038970362307104607 -0.015027757750482595 0.011253657332041485 0 0.011253657332041485 -0.0003436966959406984 0 0 0 -0.0038428636116057957 -0.015395305627982026 0.016448976652688074 0 0.016448976652688074 -0.0029388636117714251 0 0 0 -0.0045835423099382933 -0.0023397476135316175 0.015411410302554357 0 0.015411410302554357 -0.0018781943491212871 0 0 0 -0.0010544854906633372 -0.002325748125187363 0.014260950006919404 0 0.014260950006919404 -0.0057835701761748959 0 0 0 -0.0020273295753404502 -0.0082312978303403245 0.010828544259927297 0 0.010828544259927297 -0.001221842456535674 0 0 0 -0.0023632850717189577 -0.013416739643598297 0.011002303184008577 0 0.011002303184008577 -0.0029503230609548847 0 0 0 -0.004091765676138337 -0.018337448750513574 0.012370357859808501 0 0.012370357859808501 -0.00047765240531960629 0 0 0 -0.0047037752889583784 -0.025003791049716673 0.0043608171997090439 0 0.0043608171997090439 -0.00058263284098791779 0 0 0 -0.0063966059726761615 -0.014012628267253857 0.004131497092205505 0 0.004131497092205505 0.00076991947069449118 0 0 0 -0.0033106771991398554 -0.0219961811144333 0.0052127005641330326 0 0.0052127005641330326 0.00093034288789550779 0 0 0 -0.0052664595566344063 -0.037899522149995007 0.0051719241247418224 0 0.0051719241247418224 -0.00067245454931708082 0 0 0 -0.0096429941748280845 -0.031020411920644531 0.012781997239738774 0 0.012781997239738774 -0.0012078059622762094 0 0 0 -0.008057054470730185 -0.028658116428922631 0.0064122516316693703 0 0.0064122516316693703 -9.7782053727346607e-05 0 0 0 -0.007188974620662536 -0.0031931453658673933 0.0031402891777330133 0 0.0031402891777330133 0.00095014335702199582 0 0 0 -0.00056075050221131989 -0.0089230312293024916 0.0027675468027378303 0 0.0027675468027378303 -0.00098265168881694898 0 0 0 -0.0024764207295299157 -0.0035707539773772723 0.0050915055963332012 0 0.0050915055963332012 0.00022418145735358941 0 0 0 -0.00083664313000597623 -0.0108055542935519 0.002822717483719539 0 0.002822717483719539 0.00038199253282700241 0 0 0 -0.0026058904401811134 -0.010500860482355823 0.0025686820739334593 0 0.0025686820739334593 0.00014737440326584306 0 0 0 -0.0025883715197725921 -0.017751744629448507 0.0035128569450558179 0 0.0035128569450558179 -0.00045352095621575828 0 0 0 -0.0045513163964160386 -0.016784552242923301 0.0076320110026356081 0 0.0076320110026356081 -0.0020450769619539955 0 0 0 -0.004707407301219213 -0.011717257463756958 0.0056053793093964049 0 0.0056053793093964049 -0.0013137341204179087 0 0 0 -0.0032577478960438278 -0.0077498425569806351 0.0094991141653519989 0 0.0094991141653519989 -0.0029893436835135567 0 0 0 -0.0026847965601235479 -0.0060767266651576834 0.0071300621405415709 0 0.0071300621405415709 0.0006301069411041027 0 0 0 -0.0013616549310134785 -0.0027055863127377622 0.0093687106178922397 0 0.0093687106178922397 -0.0019342521366167986 0 0 0 -0.0011599596123385014 0.001059560293024342 0.0074450238627209453 0 0.0074450238627209453 -0.00026507857272295432 0 0 0 0.00019862043007545793 0.00047968173215373611 0.0059834081548063578 0 0.0059834081548063578 -0.00025848410845297209 0 0 0 5.5299405925191003e-05 -0.0051412479263902022 0.0073655065029851752 0 0.0073655065029851752 -0.0015677519403530793 0 0 0 -0.0016772499666857787 0.0001540594855437144 0.0060584428260608281 0 0.0060584428260608281 -0.0003480007446911848 0 0 0 -4.8485314786947398e-05 0.0080588189015867728 0.0060790972246025365 0 0.0060790972246025365 0.00055920234757467213 0 0 0 0.0021545053122903335 0.0080237688037481658 0.0064372145026357908 0 0.0064372145026357908 0.00031255614984737612 0 0 0 0.0020840812383989271 0.014959341562386763 0.0065700925143338251 0 0.0065700925143338251 0.0012379328469833695 0 0 0 0.0040493186023424776 0.00016681604545998319 0.0084124928169200391 0 0.0084124928169200391 -0.0025978308965535213 0 0 0 -0.00060775371277332901 -0.00021022168941775554 0.011076267685468218 0 0.011076267685468218 -0.0043440418648641455 0 0 0 -0.0011385658885705308 0.0079342332638284718 0.0083922623991243839 0 0.0083922623991243839 -0.0012091466410674157 0 0 0 0.0016812716556903196 0.0086441037737589044 0.0098591454660451605 0 0.0098591454660451605 -0.0014002200407592369 0 0 0 0.0018109709332498891 0.013794318584181897 0.01038958041232485 0 0.01038958041232485 -0.0025537016443260008 0 0 0 0.0028101542349640019 0.0077320893496666265 0.0086318955195039959 0 0.0086318955195039959 -0.0016156253553707423 0 0 0 0.0015291159985741931 0.020689843416618392 0.0066414417243955137 0 0.0066414417243955137 0.0034660554155774292 0 0 0 0.0060389747080488165 0.021348654612150297 0.0089385808142510674 0 0.0089385808142510674 0.003859363608441857 0 0 0 0.0063020045551479553 0.019787362316874613 0.01000401491269387 0 0.01000401491269387 -0.00060777331307182436 0 0 0 0.0047948972509507248 0.024298785609149998 0.0083714934963997623 0 0.0083714934963997623 0.0050671583420140998 0 0 0 0.0073414859877909411 0.030893550343726095 0.004512035920099966 0 0.004512035920099966 0.016423109973196404 0 0 0 0.011829165079230486 0.023800760919207353 0.0042950587757060177 0 0.0042950587757060177 0.0085822640440174069 0 0 0 0.0080957562408061623 0.027594200165288685 0.0065684218324223442 0 0.0065684218324223442 0.016482616110653936 0 0 0 0.0110192040689856 0.015955834373871079 0.008271508654784987 0 0.008271508654784987 0.0020463291507105408 0 0 0 0.0045005408811454074 0.01868913456724014 0.0059527263041790901 0 0.0059527263041790901 0.0077112732724230471 0 0 0 0.0066001019599157273 0.029193134592507941 0.00061619508307242388 0 0.00061619508307242388 0.016785601248626492 0 0 0 0.011494683960283525 0.019512791590633016 -0.0010220796374901253 0 -0.0010220796374901253 0.013122586584852325 0 0 0 0.0081588445438713908 0.032285249493811508 0.0033789694465284903 0 0.0033789694465284903 0.017365952331476198 0 0 0 0.012412800456322093 0.02440901030728182 0.0015616618668535809 0 0.0015616618668535809 0.013136450985911541 0 0 0 0.0093863653232981736 0.03428209822353856 -0.004037667660370392 0 -0.004037667660370392 0.026165381005285759 0 0 0 0.015111869807205913 0.039302563639400157 0.0033029557566663925 0 0.0033029557566663925 0.026553074268803656 0 0 0 0.016463909477051064 0.026068410696813649 -0.0040384376151785251 0 -0.0040384376151785251 0.010276450152395533 0 0 0 0.0090862152123019069 0.014811157804131225 -0.00089102512653416177 0 -0.00089102512653416177 0.0094800025362005158 0 0 0 0.0060727900850829908 0.0051963133415717788 0.0035069390515166518 0 0.0035069390515166518 -0.00053486216318887614 0 0 0 0.0011653627945957812 0.0056657757960870692 0.0015459998253731788 0 0.0015459998253731788 0.00087352520040129278 0 0 0 0.0016348252491219517 0.011359130593175504 0.00092412018920007277 0 0.00092412018920007277 -0.0024432807948642221 0 0 0 0.0022289624495779314 0.0066977180109182299 0.0047255311382649531 0 0.0047255311382649531 0.00050039136508761572 0 0 0 0.0017995273440015724 0.01500933545737837 0.0027696682555991003 0 0.0027696682555991003 0.0040534802800071823 0 0 0 0.004765703934346277 0.007562225556660751 0.0037420163146861807 0 0.0037420163146861807 0.0026547936764960145 0 0 0 0.0025542548082891914 0.016311230994141113 0.0037431843391822206 0 0.0037431843391822206 0.0040203537799361477 0 0 0 0.0050828961935194261 0.001229518079924663 0.0050308363694469005 0 0.0050308363694469005 -0.00082634694830829858 0 0 0 0.00010079278290403559 -0.0041179658716827827 0.0037089118457813708 0 0.0037089118457813708 -0.00064399494179845362 0 0 0 -0.0011904902033703646 0.00093929019223271126 0.0033752229306507897 0 0.0033752229306507897 -0.00068629946208220716 0 0 0 6.3247682537515004e-05 -0.00091613482313435135 0.0035785171095139567 0 0.0035785171095139567 0.00035594883783707232 0 0 0 -0.00014004649632437527 0.00077281954808439135 0.003540349092968853 0 0.003540349092968853 -0.0014677078461584614 0 0 0 -0.0001737220745187118 0.0016836022798882855 0.0016245448458764855 0 0.0016245448458764855 -0.0045569673454792792 0 0 0 -0.00071834126639758189 0.00066201076838390271 0.0012547176833788143 0 0.0012547176833788143 -0.0027137264139169837 0 0 0 -0.00051292891138299268 0.0026372489958874645 0.0021169383627373528 0 0.0021169383627373528 -0.0012681260981590725 0 0 0 0.00034228072443198698 0.00042281878226069214 0.0023641698502929742 0 0.0023641698502929742 -0.0014021679313853674 0 0 0 -0.00024483728728108556 -0.00087926777533398059 0.0017019837548082339 0 0.0017019837548082339 -0.00093012405474812709 0 0 0 -0.00045234795752069346 0.00057621491015050208 0.00077788696382308231 0 0.00077788696382308231 -0.00060989223426377581 0 0 0 -8.4193310283253719e-06 0.000118465960102343 0.00052213936011902273 0 0.00052213936011902273 -0.00016282880087459262 0 0 0 -1.1090710193117914e-05 -0.00035305941987595624 0.00063739140951368789 0 0.00063739140951368789 -0.0002657525685592077 0 0 0 -0.00015470299710873547 6.5223059903085634e-05 0.001120200927294368 0 0.001120200927294368 0.00066384353506254712 0 0 0 0.00018226664874132492 -0.0024516807882819514 0.0015906802639847895 0 0.0015906802639847895 0.00085110683130329434 0 0 0 -0.00040014348924466425 -0.0021929623499441359 0.0017312962969606716 0 0.0017312962969606716 -0.0002411180028711879 0 0 0 -0.00060852008820387604 -0.0062979694456518631 0.0019595917724579692 0 0.0019595917724579692 -0.00045100759770111409 0 0 0 -0.0016872442608383276 0.01097302125193611 0.0066666722496612346 0 0.0066666722496612346 -0.0017884551131157611 0 0 0 0.0022961415347050873 0.017612707413321327 0.0070448563646154788 0 0.0070448563646154788 0.0066117662153986068 0 0 0 0.0060561184071799556 0.017744649233815302 0.0082586773291494497 0 0.0082586773291494497 0.0047038641807883863 0 0 0 0.0056121283536509636 0.014537083555126479 0.0091063603943104601 0 0.0091063603943104601 0.0016561595908723969 0 0 0 0.0040483107864996981 0.01008772959114577 0.0071786651053512285 0 0.0071786651053512285 -0.0033199001520943534 0 0 0 0.001691957359762861 0.0066662532951574094 0.0056564866473149227 0 0.0056564866473149227 -0.0044520521581391526 0 0 0 0.00055355028425455033 0.0078556480896008474 0.0033483776969888066 0 0.0033483776969888066 -0.0037186379421046967 0 0 0 0.0010342525368740307 0.011384941847534559 0.0043148189369039552 0 0.0043148189369039552 -0.002096224714294409 0 0 0 0.0023221792833100288 0.0089222953772867819 0.0031486361831275927 0 0.0031486361831275927 -0.0036578248938657909 0 0 0 0.0013161176208552339 0.01059476477904657 0.00099050500357433791 0 0.00099050500357433791 -0.0040144665647208061 0 0 0 0.0016450745535814271 0.015170332276827583 0.0035695536558225799 0 0.0035695536558225799 -0.0024091567473486508 0 0 0 0.0031902938823697158 0.013294366179889466 0.0058833292904365564 0 0.0058833292904365564 -0.0032086534711432413 0 0 0 0.0025214281771865354 0.010840519823356088 0.0061038462179475866 0 0.0061038462179475866 -0.0022234231971999807 0 0 0 0.0021542741565390051 0.015166261800304393 0.0068524712799797466 0 0.0068524712799797466 0.002357529691879634 0 0 0 0.0043809478730459928 0.016051811475062294 0.0066637771535051349 0 0.0066637771535051349 0.0025667801230552789 0 0 0 0.0046546478995293933 0.019502961308372813 0.0053552394955611593 0 0.0053552394955611593 0.012718422367276327 0 0 0 0.008055345918912285 0.025604860157902226 0.003457591027516943 0 0.003457591027516943 0.035400027539652823 0 0 0 0.015251221924388741 0.03190703115545214 0.003437043690693975 0 0.003437043690693975 0.042034809809879503 0 0 0 0.018485460241332893 0.022975051968338947 0.0074970187941883759 0 0.0074970187941883759 0.016644624918082912 0 0 0 0.0099049192216054543 0.037449657864021241 0.0081942458518895478 0 0.0081942458518895478 0.025270255066448977 0 0 0 0.015679978232617436 0.04479280967641297 0.0027701644488227714 0 0.0027701644488227714 0.040929566839784215 0 0 0 0.021430594129049352 0.02799584274956804 0.0051676610406009571 0 0.0051676610406009571 0.038885987681201606 0 0 0 0.016720457607692446 0.019183133417228854 0.0028512092700349761 0 0.0028512092700349761 0.05747873740285861 0 0 0 0.019165467705021866 0.031216308977756957 0.0053685059383326017 0 0.0053685059383326017 0.015556673809905108 0 0 0 0.011693245696915433 0.040185892156135938 0.0046845630366407764 0 0.0046845630366407764 0.042557781665795158 0 0 0 0.020685918455482788 0.037934078227325418 0.0004129073374775083 0 0.0004129073374775083 0.035717947608504996 0 0 0 0.018413006458957604 0.02177912531774065 0.0029559338087893523 0 0.0029559338087893523 0.065277676969123316 0 0 0 0.021764200571715995 0.03770360018808222 0.0054898258666360306 0 0.0054898258666360306 0.045400715877384479 0 0 0 0.020776079016366633 0.04619172340194122 0.0043987738294353207 0 0.0043987738294353207 0.043410882463128742 0 0 0 0.022400651466267574 0.024469151515465748 0.0030181629479658365 0 0.0030181629479658365 0.073238735064453872 0 0 0 0.024426971644979905 0.038135388317049004 0.0058813698204742693 0 0.0058813698204742693 0.034588648528636329 0 0 0 0.018181009211421309 0.022470998913577289 0.0067930716311976197 0 0.0067930716311976197 0.018117618473939001 0 0 0 0.010147154346879045 0.036813146144454037 0.0055287588752366834 0 0.0055287588752366834 0.045647222591742365 0 0 0 0.020615092184049125 0.023465652581276808 0.010442242118142292 0 0.010442242118142292 0.013424148544573911 0 0 0 0.0092224502814626796 0.02999893239053119 0.0068257516714186062 0 0.0068257516714186062 0.019751372178080401 0 0 0 0.012437576142152872 0.03372653864667377 0.011043173033806933 0 0.011043173033806933 0.023278480390195533 0 0 0 0.014251254759217291 0.025477561139975648 0.0065946560370812868 0 0.0065946560370812868 0.015354940844340678 0 0 0 0.010208125496079103 0.049890940264066527 0.0072451206255376988 0 0.0072451206255376988 0.047986293461483198 0 0 0 0.024469308431387435 0.047131873227075127 0.0035973790582586734 0 0.0035973790582586734 0.053566038890381473 0 0 0 0.025174478029364206 0.039639796684105798 0.0031677735175449362 0 0.0031677735175449362 0.026934962244906442 0 0 0 0.016643689732253102 0.050098583384419526 -0.001325146898727092 0 -0.001325146898727092 0.052478588174192264 0 0 0 0.025644292889652864 0.0271481820869902 0.002946430838977364 0 0.002946430838977364 0.081587107639785938 0 0 0 0.027183822431694035 0.065585563813338549 0.0062110262910169411 0 0.0062110262910169411 0.057153097412413423 0 0 0 0.030684665306437986 0.058410786692201844 0.0042294519424095345 0 0.0042294519424095345 0.0552520485201266 0 0 0 0.028415708803082026 0.043688278664167801 -0.002353058836194688 0 -0.002353058836194688 0.044572086266787547 0 0 0 0.022065091232738809 0.052647205624102161 0.006158845497348242 0 0.006158845497348242 0.04990960084782714 0 0 0 0.025639201617982249 0.030775570788825653 0.0029499923373626554 0 0.0029499923373626554 0.09113959928400861 0 0 0 0.030478792518208571 0.07615879139713666 -0.00090843439293730732 0 -0.00090843439293730732 0.061733427870012569 0 0 0 0.034473054816787307 0.05673336138480467 -0.0067523122311856643 0 -0.0067523122311856643 0.054227174121904476 0 0 0 0.02774013387667762 0.026899754314108446 0.010255640905114702 0 0.010255640905114702 0.010705017293620278 0 0 0 0.0094011929019321983 0.051936024750358245 0.0093532802881620414 0 0.0093532802881620414 0.055973235174354652 0 0 0 0.026977314981178196 0.074061528217262418 0.0011712472066679892 0 0.0011712472066679892 0.058578940156731041 0 0 0 0.033160117093498337 0.050963745238462282 0.010101766295349979 0 0.010101766295349979 0.045989938272882336 0 0 0 0.024238420877836175 0.035967961453666666 -8.0580570772037508e-05 0 -8.0580570772037508e-05 0.013308536476425326 0 0 0 0.012319124482523008 0.0091001544297849984 0.0051793247016406752 0 0.0051793247016406752 -0.0091908690641517576 0 0 0 -2.2678658591665513e-05 0.020802082612611239 0.007264740497434391 0 0.007264740497434391 -0.00079047582759939061 0 0 0 0.005002901696252976 0.01406582099909523 0.0018504831824187331 0 0.0018504831824187331 -0.020883393710241616 0 0 0 -0.0017043931777865617 0.016491570292183177 0.0052747696817810746 0 0.0052747696817810746 0.0049943431429534391 0 0 0 0.0053714783587841541 0.012546750414838687 0.0054660668502726426 0 0.0054660668502726426 -0.0093934143375793422 0 0 0 0.00078833401931485692 0.010834944351588272 0.0078089244565367755 0 0.0078089244565367755 -0.0047600328381178225 0 0 0 0.0015187278783676261 0.012802898709965035 0.0071030344136323309 0 0.0071030344136323309 0.0013426091049522255 0 0 0 0.003536376953729322 0.019159092729821414 0.010401338220832584 0 0.010401338220832584 0.0038949704216306724 0 0 0 0.0057635157878630217 0.0064404179665771 0.0061730508571313236 0 0.0061730508571313236 -0.0091744811196171616 0 0 0 -0.00068351578826000847 0.0067936601411210523 0.0066318928362138485 0 0.0066318928362138485 -0.004403541342512432 0 0 0 0.00059752969965216896 0.0065059105221915159 0.0067239370897215628 0 0.0067239370897215628 -0.011455536117313869 0 0 0 -0.0012374063987805883 0.0074610876032467979 0.0054921124944720678 0 0.0054921124944720678 -0.0055834195601151271 0 0 0 0.00046941701078293679 0.004022544256227889 0.0042702357652998901 0 0.0042702357652998901 -0.010956984711319784 0 0 0 -0.0017336101137729876 0.0046746478725875201 0.0014893539389802535 0 0.0014893539389802535 -0.018683384714581502 0 0 0 -0.0035021842104984852 0.004882022180722867 0.0026487230020572489 0 0.0026487230020572489 -0.031129353027577966 0 0 0 -0.0065618327117137887 0.00515955815869798 0.0014849865734829909 0 0.0014849865734829909 -0.021276082574769539 0 0 0 -0.0040291311040178968 0.0040309132612177945 0.00096822488605538548 0 0.00096822488605538548 -0.037127763822866755 0 0 0 -0.0082742126404122263 0.0060805057232088122 0.0042737216176352844 0 0.0042737216176352844 -0.021881365401870023 0 0 0 -0.0039502149196653513 0.002622799474365764 0.0013309584230188076 0 0.0013309584230188076 -0.015780889199531661 0 0 0 -0.0032895224312914501 0.0039927094216353071 0.0038594519021266094 0 0.0038594519021266094 -0.020583691798291906 0 0 0 -0.0041477455941641289 0.021293456961465534 -0.0054730034402755406 0 -0.0054730034402755406 -0.019611029827170334 0 0 0 0.00042060678357380699 0.017041307571859256 0.0025481653151424866 0 0.0025481653151424866 -0.03246873551293715 0 0 0 -0.0038568569852695006 0.00833842015241687 -0.00084261263895123693 0 -0.00084261263895123693 -0.018842388366208773 0 0 0 -0.0026259920534479897 0.015616910708266291 0.0012954887503174167 0 0.0012954887503174167 -0.00056097157164758382 0 0 0 0.0037639847841546836 0.012503946377470945 0.0021139415730882516 0 0.0021139415730882516 -0.014362781012418641 0 0 0 -0.00046470865873694811 0.010263671702192237 0.0023097785524983372 0 0.0023097785524983372 -0.0051317264832298759 0 0 0 0.0012829863047405937 0.011726499911322213 0.0013767156770497016 0 0.0013767156770497016 0.0021003480299172095 0 0 0 0.0034567119853098627 0.018983547212674964 -0.0010389751889380988 0 -0.0010389751889380988 -0.0013100854379045068 0 0 0 0.0044183654436926317 0.0076978015343420955 0.0042753501483860923 0 0.0042753501483860923 -0.011556552820908422 0 0 0 -0.0009646878216415869 0.0067943291110141579 0.0019455224151826711 0 0.0019455224151826711 -0.0061425609516310709 0 0 0 0.00016294203984579259 0.0032273079817040085 0.0035687162442725184 0 0.0035687162442725184 -0.0070054721250247809 0 0 0 -0.00094454103583019311 0.0076480532233962409 0.0041857933202404662 0 0.0041857933202404662 -0.0053802097871835375 0 0 0 0.00056696085905317412 0.0074681883337644472 0.0032797043722645608 0 0.0032797043722645608 -0.003058127715907577 0 0 0 0.0011025151544642453 0.0088793535360933706 0.0020653506642430292 0 0.0020653506642430292 -0.0025546656526105327 0 0 0 0.0015811719708707372 0.0082303211144622024 0.001665826909818674 0 0.001665826909818674 -0.00057621617400360758 0 0 0 0.0019135262351146487 0.0057881775129280388 0.0033292177157318859 0 0.0033292177157318859 -0.0033668716577954783 0 0 0 0.00060532646378314015 0.010164336218443829 0.00071068043125116498 0 0.00071068043125116498 -0.0018936318208276903 0 0 0 0.0020676760994040727 0.0077273132761608021 0.00063426197947026586 0 0.00063426197947026586 -0.0022263362767018791 0 0 0 0.0013752442498647377 0.014196806938809377 -0.0014566017652263979 0 -0.0014566017652263979 0.0020432739150042442 0 0 0 0.0040600202134533983 0.016953351118859122 -0.00082313109863320355 0 -0.00082313109863320355 0.010263062706757253 0 0 0 0.0068041034564041147 0.011075894561154764 0.00059298923366989109 0 0.00059298923366989109 0.001703787948007518 0 0 0 0.0031949206272905983 0.010267308233717964 -0.00080537409531179771 0 -0.00080537409531179771 0.0012624005126780635 0 0 0 0.002882427186599007 0.01310318749755375 -0.0023054199432867295 0 -0.0023054199432867295 0.0037070542509142074 0 0 0 0.0042025604371169895 0.014726173289752204 -0.0023699407805108513 0 -0.0023699407805108513 0.0090132698244729248 0 0 0 0.005934860778556289 0.012275990031808149 -0.0034368593095465139 0 -0.0034368593095465139 0.0027522416425061341 0 0 0 0.0037570579185785772 0.010250238450800364 -0.0019938505386409913 0 -0.0019938505386409913 -0.0017333982025398154 0 0 0 0.0021292100620651511 0.012580890243207554 -0.0011742122204584649 0 -0.0011742122204584649 -0.0013070855183860003 0 0 0 0.0028184511812053888 0.0088428071061447122 0.001099356070690144 0 0.001099356070690144 -0.0023733886158013306 0 0 0 0.0016173546225858315 0.01054841900639966 0.0018937673574292158 0 0.0018937673574292158 -0.0019916781061312429 0 0 0 0.00213918522506709 0.011001591688974206 -0.00020877877314742777 0 -0.00020877877314742777 -0.00045599889026144702 0 0 0 0.00263639819967822 0.029757186725608564 -0.0073056463488576084 0 -0.0073056463488576084 0.027383110279997513 0 0 0 0.014285074251401464 0.011152167901679631 -0.0041053503106725422 0 -0.0041053503106725422 0.033377921716802719 0 0 0 0.011132522404620588 0.038264475718498059 -0.0064845873650516417 0 -0.0064845873650516417 0.023641335600216418 0 0 0 0.015476452829678633 0.029737539138684238 -0.0049715681731526962 0 -0.0049715681731526962 0.023037628930201864 0 0 0 0.013193792017221539 0.021466051182987347 -0.0039263065135576175 0 -0.0039263065135576175 0.021739379325814323 0 0 0 0.010801357627200414 0.016437156767632462 -0.0052847075302145941 0 -0.0052847075302145941 0.0084257521824698117 0 0 0 0.0062157272375255555 0.018596503842365983 -0.0040736534075059144 0 -0.0040736534075059144 0.011299513650083803 0 0 0 0.0074740043731124639 0.018554159324784728 -0.0018446590524057171 0 -0.0018446590524057171 0.0075649978756198721 0 0 0 0.0065297893001011603 0.028250934486760484 -0.001244982568152031 0 -0.001244982568152031 0.026708493717781362 0 0 0 0.013739857051135437 0.023175176438314959 -0.0042667767765225267 0 -0.0042667767765225267 0.017960455912880258 0 0 0 0.010283908087798777 0.02851031937672649 -0.00058754702581331752 0 -0.00058754702581331752 0.016266989580794838 0 0 0 0.011194327239380353 0.022473953130877189 -0.0038989803647360571 0 -0.0038989803647360571 0.0098133124922841208 0 0 0 0.0080718164057903552 0.035411950789795477 -0.0036055469990580249 0 -0.0036055469990580249 0.033923123846177572 0 0 0 0.017333768658993248 0.049003592005704491 -0.0039339109509822501 0 -0.0039339109509822501 0.034123717629365391 0 0 0 0.020781827408767481 0.031860374716660977 -0.0051981892587412704 0 -0.0051981892587412704 0.025433497007860906 0 0 0 0.014323467931130485 0.029974126665253786 -0.011083713295175823 0 -0.011083713295175823 0.024388536964753849 0 0 0 0.013590665907501909 0.017157481058853945 -0.0041758333768249587 0 -0.0041758333768249587 0.051343874213090779 0 0 0 0.017125338817986183 0.038854255833876569 -0.0042558032794625944 0 -0.0042558032794625944 0.030459901604466488 0 0 0 0.017328539359585768 0.039626799688845971 -0.0078210451038270637 0 -0.0078210451038270637 0.028571437814197465 0 0 0 0.017049559375760914 0.013929909401898409 -0.0041947596359022798 0 -0.0041947596359022798 0.04171126152038529 0 0 0 0.013910292730570924 0.045912865757568033 -0.0038063515561228556 0 -0.0038063515561228556 0.037112445984679221 0 0 0 0.020756327935561814 0.020841176620325873 -0.0040249982996949825 0 -0.0040249982996949825 0.062489449669369562 0 0 0 0.02083265657242386 0.064688599625157772 -0.0028864142829931605 0 -0.0028864142829931605 0.042061937792390536 0 0 0 0.026687634354387063 0.053550164873609182 -0.0089370642771869901 0 -0.0089370642771869901 0.039956409084878158 0 0 0 0.023376643489621752 0.040857780872546101 -0.0029757935344972841 0 -0.0029757935344972841 0.029349466782806255 0 0 0 0.017551811913838034 0.024003773982704289 0.0010241227683507326 0 0.0010241227683507326 0.012027216061692346 0 0 0 0.0090077475110991768 0.034579575512209471 -0.0040468457654099024 0 -0.0040468457654099024 0.013621395335335795 0 0 0 0.012050242711886316 0.044138195731485683 -0.00099474798881538096 0 -0.00099474798881538096 0.040239550334558505 0 0 0 0.021094436516511064 0.039807963374365499 0.0028867647562884902 0 0.0028867647562884902 0.016598640852455167 0 0 0 0.014101651056705199 0.02847141374880352 -0.0038219419246628972 0 -0.0038219419246628972 -0.0031609441136361549 0 0 0 0.0063276174087918413 0.052925633463557831 -0.0065032471627619326 0 -0.0065032471627619326 0.038630742623293413 0 0 0 0.022889094021712797 0.078317532571021753 0.00010972409354521873 0 0.00010972409354521873 0.043007270568311953 0 0 0 0.03033120078483342 0.053852579617138643 -0.010562885106918364 0 -0.010562885106918364 0.02479195759807129 0 0 0 0.019661134303802494 0.038951122642813744 0.0042053942055951254 0 0.0042053942055951254 -6.4400286321954908e-06 0 0 0 0.0097361706535453799 0.052669949153036411 -0.0097491599367194315 0 -0.0097491599367194315 0.035109792789619343 0 0 0 0.021944935485663952 0.025346262470490915 -0.0039641945494269092 0 -0.0039641945494269092 0.075493342802108093 0 0 0 0.025209901318149749 0.082119960984778473 -0.0020893906415371242 0 -0.0020893906415371242 0.047517980602610699 0 0 0 0.032409485396847293 0.060970858513045401 0.0059606908317597629 0 0.0059606908317597629 0.034315675804334811 0 0 0 0.023821633579345081 0.040916088349920596 -0.0055502413291714792 0 -0.0055502413291714792 0.010668252922213184 0 0 0 0.012896085318033365 0.029020007756514143 0.001785546088993617 0 0.001785546088993617 -0.0070661839591243947 0 0 0 0.0054884559493475482 0.024892599449414798 -0.0063828010363253251 0 -0.0063828010363253251 0.0037720873457920412 0 0 0 0.0071661716988017377 0.036461800361315216 -0.0001315850742780178 0 -0.0001315850742780178 0.010135413947819 0 0 0 0.011649303577283582 0.014146090541191092 -0.0016041570131326566 0 -0.0016041570131326566 -0.0048792359374660865 0 0 0 0.0023167136509313346 0.0043562307261569844 -0.0047714825919931148 0 -0.0047714825919931148 -0.0081655843559162999 0 0 0 -0.00095233840743980114 0.0058182363377385915 -0.0067959206757372661 0 -0.0067959206757372661 -0.0037795675210761104 0 0 0 0.00050966720416567579 0.012072803698972789 -0.0040250353458867391 0 -0.0040250353458867391 -0.013028352492296946 0 0 0 -0.00023888719833098371 0.014432324693736759 -0.010101358489290946 0 -0.010101358489290946 -0.0005461531277328735 0 0 0 0.0034715428915009505 0.0044151524970339473 -0.010054458842444772 0 -0.010054458842444772 -0.00012920746585987075 0 0 0 0.0010714862577935746 0.0042673126950836249 -0.010434942985308008 0 -0.010434942985308008 -0.00075581891254361544 0 0 0 0.00087787344563505787 0.0108939035590713 -0.011005145688534723 0 -0.011005145688534723 0.0021163479093000426 0 0 0 0.0032525628670927731 0.023866414512347993 -0.0080146005355187233 0 -0.0080146005355187233 0.010042293728307145 0 0 0 0.0084771770601638693 0.030858301672202382 -0.011044385549469043 0 -0.011044385549469043 0.011460708243395512 0 0 0 0.010579752478899418 0.017399864663601633 -0.0053489687983937495 0 -0.0053489687983937495 0.0021374782476893395 0 0 0 0.0048843357278227362 -0.00019853770329281151 -0.0018424495345701342 0 -0.0018424495345701342 0.00093157400103072163 0 0 0 0.00018325907443450529 -0.00069602604099328058 -0.0010035117334918902 0 -0.0010035117334918902 -0.00070722772947240387 0 0 0 -0.00035081344261633784 -0.00015614796262269947 -0.00081415862218880974 0 -0.00081415862218880974 -0.00041832353921150792 0 0 0 -0.00014361787545852411 0.00071101434009623876 -0.00129730394512656 0 -0.00129730394512656 -0.0014550789401583941 0 0 0 -0.00018601615001556659 -0.0024917576817303777 -0.0031401943428837065 0 -0.0031401943428837065 -0.0021926415359803109 0 0 0 -0.0011710998044276444 -0.00018557538826968756 -0.0042851575463931924 0 -0.0042851575463931924 -0.0038289175065351344 0 0 0 -0.0010036232237013998 0.0032805837244338498 -0.0036934247805154863 0 -0.0036934247805154863 -0.0031683013525998227 0 0 0 2.8070592958506779e-05 2.4532389772402574e-05 -0.002361057725021376 0 -0.002361057725021376 -0.0051765511702557276 0 0 0 -0.0012880046951208035 0.00083356564651270815 -0.003863527403149547 0 -0.003863527403149547 -0.010546184961479757 0 0 0 -0.0024281548287418179 -0.0011160340077513708 -0.007528577701509831 0 -0.007528577701509831 -0.0059566629614978828 0 0 0 -0.0017681742423123203 -0.0038353289752738606 -0.0098345538756791639 0 -0.0098345538756791639 -0.0012804750693575784 0 0 0 -0.0012789510111578528 -0.0093078572809519554 -0.0070776802023900798 0 -0.0070776802023900798 -0.0019029119867553929 0 0 0 -0.0028026923169269767 -0.00045592889673641557 -0.0066832742043266835 0 -0.0066832742043266835 -0.0025790492881727634 0 0 0 -0.00075874454622716636 -0.0024586002921151429 -0.0065527374219033763 0 -0.0065527374219033763 0.00027472627045521669 0 0 0 -0.00054596850541505093 -0.0049785691699229806 -0.0032998778570255682 0 -0.0032998778570255682 -0.0010310497512854844 0 0 0 -0.001502404730302026 -0.01107020603415231 -0.0033270697190667109 0 -0.0033270697190667109 -0.0010598785047732685 0 0 0 -0.0030325211347313947 -0.0044025108534860857 -0.0026842631171041242 0 -0.0026842631171041242 0.0011630018399009234 0 0 0 -0.00080987725339642935 -0.018537661047990817 -0.003502496589741555 0 -0.003502496589741555 0.0014007856078244174 0 0 0 -0.0042842188600415998 -0.006751893881244142 -0.0051630936407057182 0 -0.0051630936407057182 0.0016045125689545525 0 0 0 -0.001286845328072439 -0.0089761817193370064 -0.0073715550767586846 0 -0.0073715550767586846 0.00088720598073610546 0 0 0 -0.0020222439346503363 -0.015771848585921427 -0.0039567793752340874 0 -0.0039567793752340874 -0.0016120545023740884 0 0 0 -0.0043459757720739345 -0.010398204693147159 -0.008872317959567444 0 -0.008872317959567444 -0.00025194996044455853 0 0 0 -0.0026625386633979259 -0.0031271543533272772 -0.010008950109413328 0 -0.010008950109413328 0.0015138022198326606 0 0 0 -0.000403338033373557 -0.00487228646108534 -0.011379887139887232 0 -0.011379887139887232 0.0015410029712943363 0 0 0 -0.00083282087244779257 -0.0045069365175440801 -0.010837058161666066 0 -0.010837058161666066 0.0019442986992521671 0 0 0 -0.00064065945457292273 -0.010630436406537158 -0.0085319342419498678 0 -0.0085319342419498678 -0.00017175258089197065 0 0 0 -0.0027005472468573655 -0.01036780878743224 -0.0093604349632163686 0 -0.0093604349632163686 0.001619038771751076 0 0 0 -0.002187192503920219 -0.0045346611677815618 -0.012073278426440764 0 -0.012073278426440764 0.0039646542089872838 0 0 0 -0.00014250173969865276 -0.013605640617219306 -0.0098122652452700687 0 -0.0098122652452700687 0.0011304458683867313 0 0 0 -0.0031187986872081574 -0.017554203830935505 -0.00635289579390097 0 -0.00635289579390097 0.00082510401381197251 0 0 0 -0.0041822749542808901 -0.019901122991466569 -0.0050370321682304264 0 -0.0050370321682304264 -0.0011361529642395229 0 0 0 -0.0052593189889265091 -0.020792629715664923 -0.0052500276158946313 0 -0.0052500276158946313 0.0019225357663491538 0 0 0 -0.0047175234873289007 -0.028009467105655883 -0.0027526362523316861 0 -0.0027526362523316861 -0.00025366259638026634 0 0 0 -0.0070657824255090373 -0.01872286955441127 -0.0028638518612503217 0 -0.0028638518612503217 0.00041542365804181358 0 0 0 -0.0045768614740923086 0.017351284561537172 -0.012195191380419801 0 -0.012195191380419801 0.0078306835230581573 0 0 0 0.0062954920211488186 0.010794034004781849 -0.010767600728980753 0 -0.010767600728980753 0.0066474334265567148 0 0 0 0.0043603668578346966 0.019536266725493745 -0.011270479860696958 0 -0.011270479860696958 0.016253795472732202 0 0 0 0.0089475155495564729 0.014386446444408729 -0.013265478229710526 0 -0.013265478229710526 0.0072577256703745263 0 0 0 0.0054110430286957167 0.0022074554894047638 -0.011462881937955693 0 -0.011462881937955693 0.0021320567579179439 0 0 0 0.001084878061830663 0.0019213693150188504 -0.011731658486116847 0 -0.011731658486116847 0.0013739996071383542 0 0 0 0.00082384223053932892 0.0094127923119508017 -0.013209793622910811 0 -0.013209793622910811 0.0039432697378878334 0 0 0 0.003339015512459631 0.0072949846039945254 -0.013104739022302414 0 -0.013104739022302414 0.004465360794852602 0 0 0 0.0029400863497118235 0.0011270381742444213 -0.011633848302234351 0 -0.011633848302234351 0.003848301815844557 0 0 0 0.0012438349975222862 0.00026000540675619188 -0.011280516987629163 0 -0.011280516987629163 0.0014862859037918508 0 0 0 0.00043657282763698291 0.0010239069309182433 -0.0095720913956650611 0 -0.0095720913956650611 0.0036113543887910382 0 0 0 0.001158815329927336 0.015933794775854382 -0.011715891516550836 0 -0.011715891516550836 0.0074372017392423384 0 0 0 0.0058427491287742495 0.0085675596282268063 -0.010780642741504148 0 -0.010780642741504148 0.00800811338977514 0 0 0 0.0041439182545005004 0.025673762885220275 -0.008987832851245936 0 -0.008987832851245936 0.01359645318427205 0 0 0 0.0098175540173731646 0.017577891170441173 -0.010369834877939077 0 -0.010369834877939077 0.012986511352963359 0 0 0 0.0076411006308512164 0.024365221169910412 -0.0080881949855964863 0 -0.0080881949855964863 0.011598819368054958 0 0 0 0.0089910101344913285 0.016473535049281063 -0.011412982981150455 0 -0.011412982981150455 0.0086816780602340105 0 0 0 0.0062888032773787406 0.018482784351884107 -0.0082376391238888347 0 -0.0082376391238888347 0.0093514278277698759 0 0 0 0.0069585530449134958 0.023341661835344973 -0.0099093536985775943 0 -0.0099093536985775943 0.0089136834436568391 0 0 0 0.0080638363197504948 0.0097671390739068609 -0.011707967723032092 0 -0.011707967723032092 0.0058790289541370555 0 0 0 0.0039115420070110485 0.01079651485479928 -0.009319731801292086 0 -0.009319731801292086 0.0077203629656379391 0 0 0 0.0046292194551093152 0.0078842030044590783 -0.012726095151801162 0 -0.012726095151801162 0.0046556725192736792 0 0 0 0.0031349688809331755 -0.0021393236559215656 -0.012333950245651315 0 -0.012333950245651315 0.0032435280355506135 0 0 0 0.00027605109490730362 -0.0035705955188152227 -0.0086901333274319315 0 -0.0086901333274319315 0.0025838398549362651 0 0 0 -0.00024668891596973941 0.0080237341976043524 -0.0092465619961585865 0 -0.0092465619961585865 0.0050430847557769928 0 0 0 0.0032667047383453645 0.00083546472492618262 -0.012612879791322543 0 -0.012612879791322543 0.0029832099192415029 0 0 0 0.00095466866104193526 0.0067903744359165685 -0.0083900768573387241 0 -0.0083900768573387241 0.0042721334892229512 0 0 0 0.0027656269812848522 -0.0033870460064674424 -0.0090264699397260006 0 -0.0090264699397260006 0.0019872226349471056 0 0 0 -0.00034995584288005643 -0.0025513284203028952 -0.010488975334420919 0 -0.010488975334420919 0.0053640594694566723 0 0 0 0.00070318276228845122 0.020078468638139578 -0.0090579182237545824 0 -0.0090579182237545824 0.0063477141894836275 0 0 0 0.0066065457069058239 0.021634317141073528 -0.0076270003700906544 0 -0.0076270003700906544 0.0096583454869163532 0 0 0 0.0078231656569974495 0.019111560949712614 -0.0080136558432077377 0 -0.0080136558432077377 0.01048390040681757 0 0 0 0.0073988653391325876 0.0074426782218609266 -0.011104305126269365 0 -0.011104305126269365 0.0056613216422684576 0 0 0 0.0032759999660323669 0.017710810976011793 -0.0089164814725193331 0 -0.0089164814725193331 0.0066411888546391573 0 0 0 0.006087999957662682 -0.028367233458227337 -0.0048336945197179626 0 -0.0048336945197179626 0.0010791150745892431 0 0 0 -0.0068220295959095234 -0.031886991892446911 -0.0019929155279681532 0 -0.0019929155279681532 -0.00023046789131622378 0 0 0 -0.0080293649459407986 -0.027788244102843002 -0.0025297230954516303 0 -0.0025297230954516303 -0.00077480282424528812 0 0 0 -0.0071407617317721661 -0.035694358414036564 -0.0031486471215586044 0 -0.0031486471215586044 0.0011500572776970142 0 0 0 -0.0086360752840849431 -0.021108113366924919 -0.0041672707108340312 0 -0.0041672707108340312 -0.0013044864300972847 0 0 0 -0.005603149949255537 -0.012933166992706885 -0.0073263900558180328 0 -0.0073263900558180328 0.0013386747682424538 0 0 0 -0.0028986230561160731 -0.020838468680751288 -0.0079149873904645687 0 -0.0079149873904645687 0.0017086954256912978 0 0 0 -0.0047824433137650391 -0.010420629207686369 -0.0087463869761905122 0 -0.0087463869761905122 0.0007252181264984503 0 0 0 -0.0024238527702969553 -0.011825925426624306 -0.010700818348545693 0 -0.010700818348545693 0.0028587193144937739 0 0 0 -0.0022418015280326054 -0.013774974459466294 -0.0089279788273077115 0 -0.0089279788273077115 0.0020765672803049195 0 0 0 -0.0029246017947903158 -0.011307746638611803 -0.0071366604687502777 0 -0.0071366604687502777 0.0028992084697306176 0 0 0 -0.0021021345422202681 -0.011867452081973928 -0.0096726001905868622 0 -0.0096726001905868622 0.0044460189095143487 0 0 0 -0.0018553582931148394 -0.016313042712524862 -0.0051740869065417527 0 -0.0051740869065417527 0.0015236292448431443 0 0 0 -0.0036973533669203877 -0.022898730601414868 -0.0072015694718109841 0 -0.0072015694718109841 0.0018065722263106432 0 0 0 -0.0052730395937760355 -0.022874219655049002 -0.0059908505614427177 0 -0.0059908505614427177 0.0011024362827954381 0 0 0 -0.0054429458430633876 -0.023829164439922668 -0.0069264931166114069 0 -0.0069264931166114069 0.0011009249841011925 0 0 0 -0.0056820598639553688 -0.032694063791261996 -0.003295043774186962 0 -0.003295043774186962 0.0012035530919518311 0 0 0 -0.0078726276748274926 -0.032130793391394019 -0.0021388313530984471 0 -0.0021388313530984471 0.0004382399632738565 0 0 0 -0.0079231383570300407 -0.041054291588120961 -0.0040558145604158713 0 -0.0040558145604158713 0.00067110687485671949 0 0 0 -0.010095796178316019 -0.052029353175431614 -0.0018454548725419934 0 -0.0018454548725419934 0.00090696963626524241 0 0 0 -0.012780595884791593 -0.045206403014396296 -0.0026134879971022595 0 -0.0026134879971022595 0.00079237301257495396 0 0 0 -0.011103507500455329 -0.036254056830877665 -0.00078698789127265578 0 -0.00078698789127265578 0.0002358784335941555 0 0 0 -0.0090045445993208878 -0.032492393639421746 -0.0059883592044902428 0 -0.0059883592044902428 0.0022593052645584755 0 0 0 -0.0075582720937158177 -0.025471712825852394 -0.0031669879296599146 0 -0.0031669879296599146 0.00091918376546584746 0 0 0 -0.0061381322650966297 -0.013560300152207577 -0.0050782312630474613 0 -0.0050782312630474613 0.0027542441208271429 0 0 0 -0.0027015140078450739 -0.016315637011011325 -0.0082397919044030765 0 -0.0082397919044030765 0.00445356323560131 0 0 0 -0.0029655184438524829 -0.014256948648989964 -0.0066372008385991027 0 -0.0066372008385991027 0.0077998054403263239 0 0 0 -0.0016142858021659101 -0.018922653220178151 -0.0031377121040679912 0 -0.0031377121040679912 0.0006163875512858602 0 0 0 -0.0045765664172230519 -0.019069945555027043 -0.0042060664167811769 0 -0.0042060664167811769 0.0030314721449918036 0 0 0 -0.0040096183525088203 -0.026012785225453541 0.00094475064441060935 0 0.00094475064441060935 0.0039735722876329538 0 0 0 -0.0055098032344551573 -0.027835873583321138 -0.0045353483922577903 0 -0.0045353483922577903 0.0033523365471060385 0 0 0 -0.0061208842590537715 -0.03655135852920155 -0.0025391789325647854 0 -0.0025391789325647854 0.00075166246766461553 0 0 0 -0.0089499240153842474 -0.033084731265170558 0.0001669516764940121 0 0.0001669516764940121 0.00098981030717631632 0 0 0 -0.0080237302394985666 -0.049489656757950105 -0.00077135496593598585 0 -0.00077135496593598585 0.0010775533305374119 0 0 0 -0.012103025856853182 0.0096993298214236145 -0.0072466967099512614 0 -0.0072466967099512614 0.0072275444105496037 0 0 0 0.004231718557993298 0.024322084882300615 -0.014194603312173149 0 -0.014194603312173149 0.013009739334539694 0 0 0 0.0093329560542100981 0.0087559653322828446 -0.010978564049447997 0 -0.010978564049447997 0.0076656138174929223 0 0 0 0.0041053947874439278 0.0068057661180591922 -0.0077315060308947164 0 -0.0077315060308947164 0.0036598978990111108 0 0 0 0.0026164160042675133 -0.0053017628247448573 -0.0080397706080411052 0 -0.0080397706080411052 0.0034170010046753463 0 0 0 -0.00047119045501735346 -0.0041634854470312538 -0.0082379613618514258 0 -0.0082379613618514258 0.0068893474394618737 0 0 0 0.00068146549810764456 0.0056330392571430354 -0.010763817793716463 0 -0.010763817793716463 0.0080236619392688446 0 0 0 0.0034141752991029839 -0.0033538248072075283 -0.0041583788591733964 0 -0.0041583788591733964 0.0083753222185081744 0 0 0 0.0012553743528251615 -0.016354898912236099 -0.0016288643739734709 0 -0.0016288643739734709 0.0034778779655508241 0 0 0 -0.0032192552366712979 -0.01094627302723504 -0.00011238272903191238 0 -0.00011238272903191238 0.0054979813316982928 0 0 0 -0.0013620729238841972 -0.0065472929908447219 -0.0071934907331177717 0 -0.0071934907331177717 0.0094733825754254042 0 0 0 0.00073152239614515668 0.0084221308613430072 -0.0081072286683628869 0 -0.0081072286683628869 0.011291319035047639 0 0 0 0.0049283624740976521 0.0090910763434988717 -0.0072078092129365823 0 -0.0072078092129365823 0.012540646624710827 0 0 0 0.0054079307420524247 0.022038117679971388 -0.010724513296903465 0 -0.010724513296903465 0.017304022871828625 0 0 0 0.009835535137950005 0.028968407701041254 -0.020173189920068293 0 -0.020173189920068293 0.035047437334040754 0 0 0 0.016003961258770502 -0.017701794271393623 0.0014473861314608441 0 0.0014473861314608441 0.018559129598978236 0 0 0 0.00021433383189616018 0.067033695429259854 -0.018651471010307737 0 -0.018651471010307737 0.016654346513386098 0 0 0 0.020922010485661488 0.0013931344460985677 -0.0008253313724194153 0 -0.0008253313724194153 0.0040972718360813105 0 0 0 0.0013726015705449695 0.035274371976089534 -0.010885217161103189 0 -0.010885217161103189 0.0034960272066551223 0 0 0 0.0096925997956861729 0.029790100885294157 -0.0070382567432261886 0 -0.0070382567432261886 0.0090123246026641013 0 0 0 0.0097006063719895508 0.0035086297839732506 -0.0021289370998631364 0 -0.0021289370998631364 0.010476614266018102 0 0 0 0.0034963110124978372 0.049318644716968091 -0.0058663274001255206 0 -0.0058663274001255206 0.0091293141805220968 0 0 0 0.014611989724372582 0.0050829939323157221 -0.0029723479959378983 0 -0.0029723479959378983 0.015191183136062747 0 0 0 0.0050685442670946167 0.034138376258078348 -0.0053845024972905275 0 -0.0053845024972905275 0.011287259010127837 0 0 0 0.011356408817051536 0.031516752922617769 -0.0087472383495692529 0 -0.0087472383495692529 0.0066671927481726789 0 0 0 0.0095459864176975912 0.0060863181533049593 -0.0076140049050446475 0 -0.0076140049050446475 0.0059706512836657788 0 0 0 0.0030142423592426637 0.0042295683786713265 -0.0076427787116602891 0 -0.0076427787116602891 0.010479570811950112 0 0 0 0.0036772847976553544 0.0077801387944236126 -0.0063738932170860699 0 -0.0063738932170860699 0.0088645623144833346 0 0 0 0.0041611752772267412 -0.0048665760102005948 -0.0079227849337860836 0 -0.0079227849337860836 0.0064864422920849207 0 0 0 0.00040496657047107282 0.0067104757810382797 -0.005209710124128384 0 -0.005209710124128384 0.013045088416925824 0 0 0 0.0049388910494910336 0.0030295978440440866 -0.0032561095971959247 0 -0.0032561095971959247 0.0036586155383578345 0 0 0 0.0016720533456004785 -0.0023680679624610967 -0.0064285397321396515 0 -0.0064285397321396515 0.034301052698124807 0 0 0 0.0079832461839159253 0.0050284408169270906 -0.0017272044512927839 0 -0.0017272044512927839 0.013192454768586048 0 0 0 0.0045552238963782882 0.0082658897083224617 -0.0062671693738921286 0 -0.0062671693738921286 0.0053366019102289025 0 0 0 0.0034006229046378428 0.010973875703066554 -0.0072322490613103557 0 -0.0072322490613103557 0.014314019330225802 0 0 0 0.0063219737583230899 0.0073944597727529371 -0.0074929552899046757 0 -0.0074929552899046757 0.0134645611408786 0 0 0 0.0052147552284078878 0.009375508923736408 -0.0095351584776419973 0 -0.0095351584776419973 0.014979719029924149 0 0 0 0.0060888069884151436 0.010249286049757569 -0.0085978536416627845 0 -0.0085978536416627845 0.02199080637010396 0 0 0 0.0080600231049653831 0.01413071887965027 -0.01266304551291194 0 -0.01266304551291194 0.015689070673334304 0 0 0 0.0074549473882461401 0.015482863485017529 -0.012163050171388745 0 -0.012163050171388745 0.007918618571740265 0 0 0 0.005850370514189452 0.012346844702671833 -0.0097444757332530371 0 -0.0097444757332530371 0.0074862410503719334 0 0 0 0.0049582714382609416 0.013255138477536413 -0.010137551625127469 0 -0.010137551625127469 0.0069366291437636951 0 0 0 0.0050479419053250443 0.011930693358678648 -0.0094300623033976416 0 -0.0094300623033976416 0.0064038124218654124 0 0 0 0.0045836264451360187 0.012403870513603532 -0.010344879052788476 0 -0.010344879052788476 0.0023940073604774847 0 0 0 0.0036994694685202612 0.0092201152728160797 -0.0091103498022822998 0 -0.0091103498022822998 0.0067356940395489756 0 0 0 0.0039889523280912491 0.012142047864592401 -0.009159686158284816 0 -0.009159686158284816 0.0037402942752318424 0 0 0 0.0039705855349560504 0.01222601923671443 -0.0093840868387960186 0 -0.0093840868387960186 0.0041359742629677454 0 0 0 0.004090498374920537 0.010373463623380437 -0.0090230467410946369 0 -0.0090230467410946369 0.0045345532898743435 0 0 0 0.0037270042283137003 0.012217700090112985 -0.0083422108326304811 0 -0.0083422108326304811 0.0014815078821168171 0 0 0 0.0034248019930574608 0.012515895521720222 -0.0082684399230287947 0 -0.0082684399230287947 0.0036078791150487843 0 0 0 0.0040309436591922515 0.012767239503725186 -0.0081232317642180724 0 -0.0081232317642180724 0.0058642295332934635 0 0 0 0.0046578672592546555 0.015495668623780476 -0.0090075616598766436 0 -0.0090075616598766436 0.00016403336400999668 0 0 0 0.0039149254969476494 0.013817452269492643 -0.0094935718734263791 0 -0.0094935718734263791 0.0026567843912491014 0 0 0 0.0041185591651854269 0.01374950096722552 -0.0094152123872155435 0 -0.0094152123872155435 0.0026596553803142076 0 0 0 0.0041022890868849249 0.014449149127250926 -0.0076632764234323275 0 -0.0076632764234323275 0.000454657659892721 0 0 0 0.003725951696785898 0.01424979693735173 -0.0075461258023706429 0 -0.0075461258023706429 -0.00047155584483025634 0 0 0 0.0034445602731303622 0.011581711152979152 -0.0022779089030344202 0 -0.0022779089030344202 -0.0057224138120198498 0 0 0 0.0014648243352398116 0.011740233622966695 -0.0051482406390665481 0 -0.0051482406390665481 -0.0011584895397709349 0 0 0 0.0026454360207989192 0.014168822725118782 -0.0041306063630000556 0 -0.0041306063630000556 0.00015242910868601411 0 0 0 0.0035803129584511956 0.013059852540887207 -0.0067358860194197054 0 -0.0067358860194197054 0.006836555497265917 0 0 0 0.0049741020095382948 0.01349239463921606 -0.0059581644945394807 0 -0.0059581644945394807 0.0033003934387388911 0 0 0 0.0041981970194887308 0.012082692309207447 -0.0066097153295848199 0 -0.0066097153295848199 0.0027935819026515887 0 0 0 0.0037190685529647667 0.01201088050723266 -0.0038051202853060101 0 -0.0038051202853060101 0.0017486073227399035 0 0 0 0.0034398719574931375 0.014065424135031979 -0.0051905007995411145 0 -0.0051905007995411145 0.0057851577771244611 0 0 0 0.0049626454780391238 0.013912904001775056 -0.0045082440298276748 0 -0.0045082440298276748 0.0073290215175040307 0 0 0 0.0053104813798197648 0.016203175819157534 -0.0052621031028835565 0 -0.0052621031028835565 0.012672530969714657 0 0 0 0.0072189266972180477 0.015351758508994909 -0.006595775844977253 0 -0.006595775844977253 0.010502161176565383 0 0 0 0.0064634799213901112 0.014360462990600495 -0.0059828851172760988 0 -0.0059828851172760988 0.0091559481330663606 0 0 0 0.0058791027809167312 0.017882861735029565 -0.0042511499445937627 0 -0.0042511499445937627 0.018400935167715793 0 0 0 0.0090709492256863256 0.036403768074683485 -0.0056614027282988477 0 -0.0056614027282988477 0.018640347277928071 0 0 0 0.013761028838152944 0.0087940488079309934 -0.0038968034569993914 0 -0.0038968034569993914 0.026313859188502035 0 0 0 0.0087769769991082585 0.022937043013539354 -0.0054647852822331811 0 -0.0054647852822331811 0.019523080558526362 0 0 0 0.010615030893016436 0.026909335648737764 -0.0077680168955467643 0 -0.0077680168955467643 0.020809781717228581 0 0 0 0.011929779341491586 0.027673431905867851 -0.0063345912936369486 0 -0.0063345912936369486 0.016854859414388357 0 0 0 0.011132072830064094 0.038050796873104017 -0.004414757530285085 0 -0.004414757530285085 0.014891593012062665 0 0 0 0.013235597471291674 0.014137431186478377 -0.006411156026421963 0 -0.006411156026421963 0.01565316677074105 0 0 0 0.0074476494893048716 0.0067993252624372891 -0.0035398711231377556 0 -0.0035398711231377556 0.020336422775834136 0 0 0 0.006783937009567859 0.030471951368807093 -0.0053179158638205458 0 -0.0053179158638205458 0.014481441737854595 0 0 0 0.011238348276665366 0.027432459753362073 -0.0080108142363440604 0 -0.0080108142363440604 0.0075988148079372819 0 0 0 0.0087578186403247799 0.040656843374176438 -0.0045418938220592453 0 -0.0045418938220592453 0.01138706127183392 0 0 0 0.013010976161502569 0.0088129995910896097 -0.0069384890418644485 0 -0.0069384890418644485 0.010646956310217032 0 0 0 0.0048649889753266534 0.011101073329339954 -0.0086468966019290772 0 -0.0086468966019290772 0.0065585799097980374 0 0 0 0.0044149133097845031 0.0105680952078211 -0.0080862733630798211 0 -0.0080862733630798211 0.007111727114136282 0 0 0 0.0044199555804893334 0.014560794727337747 -0.0057979344393360027 0 -0.0057979344393360027 0.012266213100517148 0 0 0 0.0067067519569637274 
</DataArray>
<DataArray type="Float64" Name="von_mises_stress" format="ascii">
0.013576224422795369 0.010931451921816561 0.016452713879245399 0.013601268950992808 0.011658904301531452 0.011663335827129523 0.015035594215947468 0.014831768122507027 0.015208357276946791 0.013735230941126613 0.01760028045184811 0.014652222678273622 0.020302423950694235 0.01693566815128153 0.022268527346639998 0.018517446605458999 0.018359144458731727 0.018274187088195847 0.010363458677239453 0.012802002221603622 0.010430263199785638 0.013559869310831238 0.012542172603187124 0.012129651231433732 0.010715828919803719 0.014368717074289923 0.013199422731279607 0.012327293168313146 0.010135714141592398 0.010931860759538734 0.012012930693316617 0.0090151966061394421 0.01083539116197979 0.0084635595777369683 0.012195858954107908 0.015098203156809235 0.013739462994358976 0.010843364912662449 0.014093111869168919 0.016132161928988597 0.012498162874742052 0.013487709342337735 0.011327119988736624 0.0089356797866676635 0.012941801881932188 0.0095802055721039576 0.0085056104444475988 0.010275081533795295 0.02213947935850219 0.019763477898579664 0.026976242754527358 0.019802147868325733 0.016877370209803223 0.017352523273998579 0.018247158022074321 0.019187066781675921 0.015257942517471293 0.020610642522055467 0.016487951324467714 0.019658918391354592 0.025361560953366467 0.023902927992855635 0.023173161214151711 0.030664298952542361 0.032780616451700308 0.025034192774623001 0.028416243829217258 0.038672000925239335 0.030897977532582704 0.029060071308322163 0.032282683298587876 0.042725880347938484 0.019610177454926898 0.018821407407383525 0.02305997348340226 0.023654428040817587 0.018689190129105734 0.027786403480897056 0.021832416184780871 0.021593932584792312 0.017456802835538132 0.01390363372211955 0.012848209094873069 0.012504352700770376 0.011302223528441385 0.017357849829859384 0.0077237730408110323 0.010754924176176246 0.0087050120446121159 0.0046564619417283262 0.0093746810842440763 0.0089272830466411747 0.0061336129161560938 0.0048749639316787666 0.01429183228952874 0.014651225264889021 0.0089902878365332936 0.0097144911908175497 0.01452615804703407 0.01749370320724402 0.014612868339871719 0.013996645863485646 0.0072732361889781029 0.011190738006969793 0.0051732159674953582 0.0068338116036495986 0.0050859007864673842 0.011327484510790214 0.012445705645398085 0.0093048630302400865 0.011928996442612609 0.017180727126013293 0.0067790808799286567 0.011237552321353225 0.015556867770143991 0.019093940101139132 0.02361076223948573 0.02627339941522298 0.0324748948930451 0.034035972415814131 0.047899843531468977 0.035308248345906595 0.034354412489780141 0.034962225116768081 0.030813301259200371 0.046193522189379013 0.034524534524910562 0.025570146941640916 0.021343280161952253 0.025842406361788361 0.013798616320150512 0.011605218740441072 0.010482547976333226 0.012291549455983772 0.01265643790333262 0.014835433805389247 0.018236706589330087 0.016926500575781333 0.017195213144117861 0.015795891668023896 0.016423463373181141 0.01698564967165753 0.016873485669782664 0.017853716624890936 0.018882936653125418 0.037866968433640423 0.025637557778913359 0.024077119827092385 0.019331196887819039 0.015975688510538016 0.014666513467114645 0.024629340201275347 0.014614964522574533 0.0068900358658364911 0.014207448312093685 0.005593805980691223 0.009281045607334391 0.0172077191884881 0.014535158048071489 0.013171393246073356 0.0078682545996552888 0.0099503356448903315 0.0070929034303779852 0.0054696315591940756 0.0062615871304363465 0.004567836022831671 0.0069210518799554966 0.0053838679184527588 0.0067481658398456726 0.0056211898643355532 0.0079680581271630423 0.0065035693056968973 0.0092341294178607553 0.0062160853550900855 0.0061847018085814396 0.0069710396945732072 0.0064498580876134757 0.0059326315516457159 0.0093526004315418101 0.0095812625335953451 0.0096873935284205424 0.0062371253227598887 0.0058679364029590852 0.0050825440039853594 0.0068711060332180812 0.0067801829298595705 0.0066901719931541353 0.0092258088306608806 0.0075454495881420629 0.013109854062677846 0.0078991561243718037 0.010113032310852813 0.00700169538948085 0.0092848597091612726 0.009131582310042137 0.010726183962325424 0.010722567998794771 0.014470457018364276 0.015284489544856143 0.01428780779293109 0.0128700441045688 0.012806168417242846 0.0088379970333551956 0.011372878881923941 0.01261999296544364 0.012041476494164349 0.013768374839425886 0.014478402723705206 0.012109094487968789 0.016048838251055554 0.0155576467008447 0.01736343455654538 0.016189551327509273 0.01515276507670643 0.0084050794426985646 0.0089930630724915691 0.0091041435786149462 0.01012736509328733 0.0088634797786055954 0.0096650784820662104 0.0089429517058107616 0.010559604150499604 0.011565325351707003 0.010206237255066135 0.01292583716657952 0.01071789703110146 0.010255901881567112 0.0089838948268935216 0.010377780932767852 0.0091267313297212598 0.010396515665621222 0.011263216549220526 0.0097807933982700466 0.0088040208503546227 0.011092615473116374 0.0096705189138678264 0.011568036942447698 0.01037022540269383 0.011076103554240095 0.013134243036270716 0.01025062273362046 0.012156370121610614 0.010130065075655698 0.012329411920815218 0.0099958860339443324 0.012608094299891896 0.014593047419567415 0.015899118163108482 0.014021314508984691 0.0144166764922434 0.012053883499986859 0.012948915127600361 0.010488848504284035 0.011949449299634558 0.010915560054209763 0.012140449471917785 0.013248602900561412 0.013804936867056002 0.012205895335401808 0.010940599043712494 0.012866467256446232 0.011158679466609478 0.012714482701330536 0.014686065596537476 0.015217383108690502 0.016170674806993576 0.015705194821396349 0.01726711604722354 0.017237541348971468 0.018181891073314683 0.017468082278739236 0.016494444579978902 0.015187678147954891 0.010979344795183912 0.011298118536691269 0.012724337501387172 0.011342252539824751 0.014514292617300766 0.013617720730918969 0.01157077023232831 0.014703074353601657 0.015602756528038672 0.015935700705343763 0.014642410764533207 0.014308589317725677 0.013704453996515202 0.015519349435967004 0.018365833852495107 0.017254827756507423 0.018738623656444017 0.019230713810141541 0.022124757738481615 0.018757005406917208 0.017579827493519024 0.017865084003885364 0.017710688226610261 0.016432259583291732 0.020913371397743942 0.020834706168829452 0.019946644327447999 0.023564106460592212 0.021135391595413534 0.020915802002473196 0.020335238597119214 0.022453495087560546 0.023671438317186915 0.024682559343023353 0.02115296056149921 0.021559283931563911 0.021427196741199035 0.02032728566859985 0.019695222775601796 0.018902008183612099 0.017611005956410006 0.016810754733583219 0.016383718283122781 0.018897932666045808 0.019132681447145077 0.017486680869549402 0.018821173553277424 0.018616389534158954 0.01912254071008283 0.019585366106036881 0.019709056804122223 0.020965766637325602 0.032278938381246174 0.025594228148658756 0.025910722126995762 0.025475000627870559 0.022154209435948456 0.018076828468944463 0.01468218455926691 0.018423523630579405 0.020559451808856474 0.019961329895389443 0.015896749660473452 0.015902533859894624 0.02016665411438321 0.017730093658109517 0.022819593913051092 0.029057085369185227 0.019716962721115974 0.023974819062210703 0.016590738873480376 0.015639830405091017 0.01924976379783324 0.017799972813666201 0.016833016121196795 0.01357310738847969 0.015858096049168251 0.01266271582753452 0.016640580693174482 0.012520380337874955 0.012004645603435598 0.016484923554864486 0.01593450351238427 0.013177601399840864 0.018068651751534163 0.016807430851988568 0.018814514864770374 0.019683138199603618 0.016386557596834064 0.020699765025367779 0.016687060536334206 0.018595580620878165 0.022232178544780646 0.021165931562499588 0.021939714297264743 0.019566002208140806 0.016024145527272656 0.018488765128509086 0.023735074977045981 0.023342543902641573 0.027924578496636186 0.027659396613447053 0.026797700509739772 0.026619365123163076 0.0301036335111028 0.036855420859854535 0.041180531809257175 0.048423428636090726 0.03499076025229244 0.040519601274592712 0.028767331822626013 0.032720962804629695 0.028089838730147105 0.053560191744486646 0.07447284937782972 0.05234428070485795 0.048070566115153791 0.065462396866285855 0.055624424360168241 0.038873148286412668 0.04437564785960902 0.046391185540421175 0.032092185622836354 0.03083461383744646 0.023282302712330359 0.037092163032221931 0.035419919540469538 0.031318792176630854 0.021714397469943643 0.022220303694875782 0.023805861523261897 0.029543560037416927 0.02502478692317231 0.031556340687112432 0.027136691970310496 0.020761758719728709 0.024038201363671265 0.021605529711946288 0.017631949049544286 0.024964204357065804 0.022973107113813337 0.025190355892173437 0.017785643103621497 0.017601909263473152 0.027401604073029492 0.017071422190318392 0.024746109330633852 0.015708653330383755 0.016593931605706373 0.028097698076604994 0.01342139940829872 0.026758265780380375 0.029895750645703441 0.040303830410706523 0.034942323195247482 0.046333969876201565 0.028222230042609386 0.024014186783877633 0.019033903668999919 0.039707984331473337 0.027063099556852009 0.042403955080212351 0.020109954012227371 0.029966034589107376 0.031634333897291117 0.036180660984142354 0.042322327229713887 0.041417353052891737 0.037020783477314856 0.044189228982316864 0.029281271053159336 0.050344449195226487 0.047815885557816705 0.041627887697447026 0.056638385780821844 0.052153921884704094 0.078245583739950775 0.056916730745985543 0.080713500285171713 0.058025858887782056 0.05000291782176005 0.058406827645797708 0.021553668187032249 0.022416276268888351 0.023497121634186009 0.018648253527553414 0.0156882445565651 0.014953024175458017 0.010201415155851965 0.017788962337098303 0.013651721732140876 0.013377620366434927 0.015003846524304691 0.017109120472266939 0.019493549646819659 0.017237918578278118 0.02148473939254195 0.023183060545874379 0.020585153627181593 0.022377002129282533 0.023860700799875914 0.024157047262717078 0.02347170360198015 0.021024370059969121 0.025204594468865645 0.022514545907907364 0.024185864634890357 0.025370935042136864 0.026129052844066608 0.029337640706308572 0.023078788280883021 0.029971332229214272 0.029238775106828055 0.038779816507210026 0.03364348202452145 0.036287140628907276 0.028061088202653579 0.03012673409811948 0.027254307837809948 0.033334522410286511 0.053930740937765183 0.081243301489909492 0.089970640778650357 0.062015961192384499 0.032378761294766842 0.035933674654453143 0.072622301862780694 0.040520920983077933 0.043608237894989847 0.034562460097980419 0.021259501792398668 0.030835948348791151 0.018595192709482726 0.024111937924673837 0.017197762668164165 0.025933459310969499 0.013141938010784608 0.01877233035431182 0.028413212878336778 0.021009598215760386 0.018549782821294294 0.026587101364268922 0.022857615954308321 0.021518036663948071 0.030229312526253764 0.028651647435062651 0.021102126463942109 0.026593822070173342 0.025785934787442517 0.0236260665387352 0.026711730754507008 0.029861163749064158 0.032311176509691689 0.044286716730768144 0.028976213564110165 0.033845243856573996 0.037312929894096653 0.049023042644737003 0.059650916272388638 0.049559772492921782 0.12756242059793563 0.042703137540452935 0.062704216586291411 0.12339186927012559 0.08922233936129631 0.000259855490663864 0.14541203798723162 0.062333599160661085 3.9699952083190959e-05 0.015092773937163493 0.055814480216970074 8.2707287762908316e-05 0.017834412499742869 0.045930208539495587 0.038003902694538738 0.014039049957733047 0.01896118345169262 0.023225529810714504 0.012210701971125091 0.010370602302716983 0.016032099871600581 0.017944422215634036 0.039294409917145029 0.030134409789047491 0.035275711247019635 6.4200397093410334e-05 0.027216109882292852 0.027730581065094701 0.025926794592354339 0.023370023897562917 0.020822333641598138 7.5677527530009734e-05 0.02062004093664048 0.010763866217118017 0.016429691522817973 0.013983095059245844 0.012766103348107384 0.01362724270512161 0.017162625814030504 0.016819167981501584 0.017875330340014848 0.020035587286371982 0.020086424957327209 0.016467738991915809 0.015152178801815328 0.01731075195644776 0.018761368785334676 0.023952491971536601 0.020587109942319704 0.023549478195084871 0.020687071355927959 0.023807199677047901 0.022801124895611355 0.023528886342890028 0.040194056451377143 0.046518641003745233 0.045453137469005908 0.063139628837832765 0.068391264250168157 0.042286607826402291 0.044941063815885959 0.04702806612936411 0.040608497524976785 0.045842565606286662 0.033307934663488623 0.0436120837140083 0.034007212297470293 0.03506495765846817 0.048946978981662961 0.041484686134322477 0.061490474161036764 0.044599846062754044 0.035815575011130411 0.052594552669371929 0.041353622593749202 0.065423406715515706 0.078697407750406456 0.081588904309576757 0.070098849668777413 0.050698253090503652 0.056189154322154912 0.04908213478787013 0.04247582484401459 0.041149165371701484 0.039848034741780267 0.034510384969605505 0.030454330735532685 0.02843826743993845 0.031800486441237445 0.036239105921943869 0.026707794110732676 0.025659020950257586 0.027334425647856098 0.030017745646387203 0.035338633539690779 0.033356397035284931 0.033583464783599998 0.039327588321740332 0.028057921333134984 0.035302088922512506 0.023588519401788938 0.030807264884219119 0.026717155832029927 0.024964005097516631 0.019854636163270344 0.021495440899596215 0.026840864494778193 0.023350834548455233 0.015035330937633311 0.022438169820589746 0.034822760598796708 0.034952082807410571 0.028049987411357058 0.0065401697658400548 0.0087405849907714502 0.0094483549179100422 0.011160858836094642 0.010560905716354912 0.016797511106603234 0.018969490188230045 0.013639967977504745 0.01717278091899024 0.013715089328971483 0.016282197011955012 0.012947609513658588 0.010383411966761423 0.013234146393287554 0.010502646695561141 0.012557521597915233 0.013162586626964302 0.0169441175909327 0.014778766027482543 0.019549010249505071 0.016637846193886956 0.019249784267652583 0.023068819525510098 0.017070497478722541 0.019781041804937467 0.022556959395962417 0.025203236910966643 0.023270899039277735 0.018922203473493812 0.017163503259124729 0.01853256133329359 0.01925134245101514 0.015500041167521607 0.015771081486304562 0.01001632291108381 0.018848580572386101 0.013810255702988756 0.018074504509877045 0.020632522261425684 0.017847289860835763 0.0077830886615736054 0.0079302405055560431 0.0052026194656362547 0.012264183139019311 0.0099516518952526244 0.011651102640038585 0.0081605417508670321 0.013459917077247774 0.0088942699910823514 0.0071928230674689697 0.0060135094626416682 0.0062968734115247957 0.0064340785441814119 0.0061353063477382229 0.0036786881637426343 0.0050000406156454772 0.0043961090658768513 0.0029827511713907905 0.0016942647045593521 0.00093667315266527003 0.0011173420733128824 0.0020165642411629353 0.0039915173134713114 0.0034956729778051619 0.0063251098866604636 0.016147671097171894 0.016623239882348123 0.019069866135825678 0.01973841104919441 0.017096368599514949 0.013747962707454419 0.011626592397297977 0.014055315467802953 0.012254324320847908 0.012873297989052571 0.016738636166803569 0.017733035100445028 0.015633670987066438 0.016825858250449865 0.01706657780126946 0.013617886933009549 0.018450570597004237 0.021309175809587851 0.017227275674543865 0.02363370690344882 0.022214528621055118 0.021180989282284738 8.6521632982708411e-05 0.020177033804571948 0.022315062396600846 0.01852656769224666 6.2744192384384635e-05 0.02380113896188896 0.023783116426700581 0.00011306166264584521 0.021065496699256277 0.015988000151310418 0.023983624202062688 0.022086165421935651 0.019319040495385031 0.025511266436106021 0.017650067198827831 0.02754892254386887 0.02652596121075507 0.020692423460640881 0.025829171837661251 5.6805778568644582e-05 0.033325802239905333 0.029472029419617716 0.022451386275188164 0.027870838758844062 0.0003116183912973482 0.036700621278219506 0.030182891177714589 0.024507530872680806 0.031661512614627012 0.035825852753297985 0.030202519105314175 0.023170400577579072 0.018204336921690972 0.023087601085062824 0.030483824017488757 0.0145417344026473 0.021243428465843085 0.01917412118019534 0.016197806455680253 0.023076539969608945 0.017252700356495294 0.015044468761436976 0.019471141173367124 0.014775981410284441 0.015033291740916716 0.02069101458286593 0.032198124284749358 0.023387641577665843 0.036630622402474257 0.025628069863302495 0.016436457233895915 0.022691177209667294 0.036673164434221611 0.043275721367973807 0.023730214626871311 0.014679760252095683 0.023558182899849893 0.0139790914836648 0.0093344520968611667 0.018210821127593414 0.018270580190440162 0.011700601090628223 0.010845815146832862 0.013423329303106529 0.010797565427325002 0.010646582597531999 0.0083757295080938588 0.0098223564338074873 0.010716176062626379 0.0087979836376577327 0.011559848786276302 0.009049774999406868 0.0087829216827078997 0.0084303345772618055 0.0099910904091489033 0.008749307393898717 0.010843331014105078 0.011142958134139019 0.012519460577150183 0.010029649651929035 0.011544509713847451 0.010273200455878356 0.01919395559333692 6.9772476528068641e-05 0.02293572284152829 0.016789646086082556 0.01276608813658834 0.013059732719371088 0.012065622529420275 0.011975712980004181 0.013972042056013198 0.013445069741697237 0.01545227945106867 0.015198000848048178 0.018469485581947824 0.025384430516564624 0.017810216621257178 0.024013567212412545 8.129331585398039e-05 0.020185706531944275 0.023787801161319195 6.6797802733894782e-05 0.023073266500633793 4.9979912268805809e-05 0.033484300185959791 0.030408443923643017 0.020831781316769257 0.01385151444009612 0.022886092252875828 0.021432298047132203 0.025057160328817423 0.028884511597941556 0.028355691213864456 0.043071206289178876 0.036805891397429277 0.035862484677487781 0.031590946021224184 0.00015614589382321957 0.044288194682366874 0.034740952863876823 0.03073960334832548 0.031880206988334506 0.022541772061311187 0.02560404624127928 0.016868888731133992 0.013667661706802432 0.014418798609313832 0.022830042209867431 0.022055158997867939 0.017886109589515326 0.018610713459378585 0.020777463090344745 0.020196379198509553 0.027569303439381836 0.016864058421747818 0.0033429491618722626 0.0017732094003971234 0.0014355280927673046 0.0029330128980730053 0.0055696534126149517 0.0081271422720676414 0.0084921161578700357 0.006218616364280634 0.012157323339538303 0.01381081653180132 0.017224590687452683 0.01411597203428819 0.011745419775575706 0.011606743313409806 0.0068272969583787332 0.010842479242003069 0.0067455841308439761 0.018796627878672336 0.011575868230813658 0.015494313665721194 0.014704782924294833 0.01790120258213803 0.017800387267776181 0.020495043194950859 0.019594636005844997 0.017541741979717612 0.019375252900448552 0.022169601575992102 0.021480985467742894 0.019796931487902264 0.019179900690845474 0.022179437659979845 0.025503819581886703 0.017895762172004944 0.023532587645729929 0.019486718496905669 0.021661259116786978 0.024399018823567074 0.019884018987772731 0.020342046571652547 0.023602578782058327 0.023018508649512361 0.020325854503921489 0.01957213859677728 0.016770176423944058 0.022362203142510521 0.019133049086073779 0.021168935782870789 0.01991977463500063 0.019983260966079195 0.021814040541563617 0.017735101055900683 0.022709827139710485 0.020925289381771687 0.017002908814126499 0.022438941154672147 0.021867476064760982 0.015969468157836522 0.016547848482967198 0.021945961113795216 0.014952759434798879 0.016316127616038865 0.019430396310406672 0.020764977898352677 0.018527904566593492 0.01741340412037003 0.019571123530269362 0.019169691428563229 0.027693852700092159 0.028774771453750497 0.024849214921463986 0.033503088785209433 0.019432741823421418 0.017949765731301321 0.024332977564514257 0.018125820043838503 0.02258931843718268 0.020883803416198811 0.017566812962518479 0.021993565867754378 0.018237162546714532 0.02532107316024948 0.02384232692650751 0.025344560442002891 0.030924691262787789 0.029530600575313957 0.038171070896560411 0.047699595877200587 0.041601615164921897 0.032887328942439155 0.032718026338141602 0.024292502392999672 0.016860804913917036 0.023151599743588991 0.022352595470866567 0.018352418304327045 0.020868745091713794 0.026597402517910169 0.028787179743506631 0.033809465545248892 0.030582178684117532 0.045453825498433069 0.013417659032416105 0.028063164996551024 0.019476460713990659 0.01391389788532978 0.015847661870748285 0.017195355580381003 0.019066258706631645 0.012515269730938024 0.017701058746252878 0.014307454642573771 0.018662009162954005 0.015087889425017808 0.013929390051430166 0.021414762386157592 0.038790662556662095 0.031503518355602896 0.058180080209618928 4.7897350392835575e-05 0.034739138532010848 0.023801258966139997 5.0901362779106492e-05 0.039091410206429505 5.9842794961452393e-05 0.024649072847871503 0.027996318928868461 0.0135283000854111 0.01476670310534086 0.011835408936508886 0.0168862023460962 0.01165810325336585 0.0059075594759771845 0.03458581929652034 0.0089268198843705897 0.011654699364451524 0.014326585470478955 0.014941934512847707 0.018258879765997139 0.019751726728510808 0.023204649335476165 0.022824538426866103 0.018087785339889171 0.019071818122209525 0.017626618115614692 0.020245583776646495 0.016417564462606858 0.017899921747803131 0.018165958689465155 0.016843584339618661 0.017520162121541585 0.016759008630940469 0.015981084765414107 0.020857358956015197 0.01951324245124867 0.019365070487805062 0.018356047402560673 0.018580519641655153 0.015565566897736411 0.014535964749374491 0.014537841489255073 0.013780611081189153 0.014213785456355845 0.014477988818374784 0.011586855847284841 0.012524929301566297 0.011031075949691457 0.012022112112503812 0.013781447507457226 0.01273828181761081 0.011691888105454995 0.022851142116804467 6.660379687552104e-05 0.014526247627505491 0.018741646491909972 0.01822320825571502 0.025217312211725566 0.013435004222997949 6.3911098078632501e-05 0.020072704304224705 0.023753924420826571 0.029558619849152749 0.013062103820518102 0.016101975248900561 0.014988639642747556 0.012238361072151743 
</DataArray>
<DataArray type="Float64" Name="cross_section_updated" format="ascii">
1 1 1 1 1 1 1 1 1 1 1 1 1 1 1 1 1 1 1 1 1 1 1 1 1 1 1 1 1 1 1 1 1 1 1 1 1 1 1 1 1 1 1 1 1 1 1 1 1 1 1 1 1 1 1 1 1 1 1 1 1 1 1 1 1 1 1 1 1 1 1 1 1 1 1 1 1 1 1 1 1 1 1 1 1 1 1 1 1 1 1 1 1 1 1 1 1 1 1 1 1 1 1 1 1 1 1 1 1 1 1 1 1 1 1 1 1 1 1 1 1 1 1 1 1 1 1 1 1 1 1 1 1 1 1 1 1 1 1 1 1 1 1 1 1 1 1 1 1 1 1 1 1 1 1 1 1 1 1 1 1 1 1 1 1 1 1 1 1 1 1 1 1 1 1 1 1 1 1 1 1 1 1 1 1 1 1 1 1 1 1 1 1 1 1 1 1 1 1 1 1 1 1 1 1 1 1 1 1 1 1 1 1 1 1 1 1 1 1 1 1 1 1 1 1 1 1 1 1 1 1 1 1 1 1 1 1 1 1 1 1 1 1 1 1 1 1 1 1 1 1 1 1 1 1 1 1 1 1 1 1 1 1 1 1 1 1 1 1 1 1 1 1 1 1 1 1 1 1 1 1 1 1 1 1 1 1 1 1 1 1 1 1 1 1 1 1 1 1 1 1 1 1 1 1 1 1 1 1 1 1 1 1 1 1 1 1 1 1 1 1 1 1 1 1 1 1 1 1 1 1 1 1 1 1 1 1 1 1 1 1 1 1 1 1 1 1 1 1 1 1 1 1 1 1 1 1 1 1 1 1 1 1 1 1 1 1 1 1 1 1 1 1 1 1 1 1 1 1 1 1 1 1 1 1 1 1 1 1 1 1 1 1 1 1 1 1 1 1 1 1 1 1 1 1 1 1 1 1 1 1 1 1 1 1 1 1 1 1 1 1 1 1 1 1 1 1 1 1 1 1 1 1 1 1 1 1 1 1 1 1 1 1 1 1 1 1 1 1 1 1 1 1 1 1 1 1 1 1 1 1 1 1 1 1 1 1 1 1 1 1 1 1 1 1 1 1 1 1 1 1 1 1 1 1 1 1 1 1 1 1 1 1 1 1 1 1 1 1 1 1 1 1 1 1 1 1 1 1 1 1 1 1 1 1 1 1 1 1 1 1 1 1 1 1 1 1 1 1 1 1 1 1 1 1 1 1 1 0.0020154723459586666 1 1 0.0020398046980704995 1 1 0.0020558137779677884 1 1 1 1 1 1 1 1 1 1 1 1 1 0.0020696906217910747 1 1 1 1 1 0.0020829104744829376 1 1 1 1 1 1 1 1 1 1 1 1 1 1 1 1 1 1 1 1 1 1 1 1 1 1 1 1 1 1 1 1 1 1 1 1 1 1 1 1 1 1 1 1 1 1 1 1 1 1 1 1 1 1 1 1 1 1 1 1 1 1 1 1 1 1 1 1 1 1 1 1 1 1 1 1 1 1 1 1 1 1 1 1 1 1 1 1 1 1 1 1 1 1 1 1 1 1 1 1 1 1 1 1 1 1 1 1 1 1 1 1 1 1 1 1 1 1 1 1 1 1 1 1 1 1 1 1 1 1 1 1 1 1 1 1 1 1 1 1 1 1 1 1 1 1 1 1 1 1 1 1 1 1 1 1 1 1 1 1 1 1 1 1 1 1 1 1 0.0020957831742445918 1 1 1 0.0021087836909935184 1 1 0.002122029408548685 1 1 1 1 1 1 1 1 1 1 1 0.0021360082130202299 1 1 1 1 0.0021516520169145002 1 1 1 1 1 1 1 1 1 1 1 1 1 1 1 1 1 1 1 1 1 1 1 1 1 1 1 1 1 1 1 1 1 1 1 1 1 1 1 1 1 1 1 1 1 1 1 1 1 1 1 1 1 1 1 1 1 1 0.0010278067491402277 1 1 1 1 1 1 1 1 1 1 1 1 1 1 0.0010427731692438807 1 1 0.001034751210987268 1 0.0010520709913711822 1 1 1 1 1 1 1 1 1 1 1 1 1 0.001062854301854948 1 1 1 1 1 1 1 1 1 1 1 1 1 1 1 1 1 1 1 1 1 1 1 1 1 1 1 1 1 1 1 1 1 1 1 1 1 1 1 1 1 1 1 1 1 1 1 1 1 1 1 1 1 1 1 1 1 1 1 1 1 1 1 1 1 1 1 1 1 1 1 1 1 1 1 1 1 1 1 1 1 1 1 1 1 1 1 1 1 1 1 1 1 1 1 1 1 1 1 1 1 1 1 1 1 1 1 1 1 1 1 1 1 1 1 1 1 1 1 1 1 1 1 1 1 1 1 1 1 1 1 1 1 1 1 1 0.0010034058378319203 1 1 0.0010087253790669003 1 0.0010126532985862103 1 1 1 1 1 1 1 1 1 1 1 1 1 1 1 1 1 1 1 1 1 1 1 1 1 1 1 1 1 1 1 1 1 1 1 1 1 1 1 1 1 1 1 1 1 1 1 0.0010219211027367421 1 1 1 1 1 0.0010169406072078329 1 1 1 1 1 1 1 
</DataArray>
<DataArray type="Float64" Name="displacement_divergence" format="ascii">
-1.1887522758696191e-05 -1.3333404372340614e-05 -1.0107596751795338e-05 -1.1732259894311308e-05 -1.1297459632945361e-05 -1.1291563779828001e-05 -1.0453779964595427e-05 -1.0919256070299213e-05 -1.0097540755916216e-05 -7.6761878747929263e-06 -1.1231918610452623e-05 -7.2398896613231316e-06 -1.3578892477600718e-05 -1.0276652925079081e-05 -1.6274167126295127e-05 -1.2749838678674798e-05 -1.099710756821914e-05 -1.2019638974597398e-05 -1.9051342491044e-06 -3.3798482461659423e-06 -3.6350978504869484e-06 -6.365507161237715e-06 -7.4038478966749923e-06 -4.6088897505542657e-06 -5.3422515760336282e-06 -6.7779398267719818e-06 -7.3410007766599792e-06 -6.5516026752846562e-06 -2.8645915981622727e-06 -3.3378446947085907e-06 -1.8031382105667295e-06 -1.5551800189633535e-07 -8.4057709843988261e-07 -5.5695083178496318e-07 -3.5778195616406627e-06 -7.4147149882588796e-06 -6.0591699462100629e-06 -3.7152804120236664e-06 -6.8581579113706465e-06 -8.2363150103367009e-06 -5.8997738306630785e-06 -4.0935290974072338e-06 -3.7311614816453009e-06 -8.7930786750147574e-07 -4.1706359265236277e-06 -2.4928307580056256e-06 1.6911752290932471e-06 -6.6821979466251638e-07 -1.6366177797778598e-05 -1.2507159056790936e-05 -1.8624412434998229e-05 -1.2221254279320322e-05 -9.5652968784022877e-06 -1.052002255894617e-05 -1.0716698264005563e-05 -1.1839160079458491e-05 -8.6906032016093381e-06 -1.2982225157453705e-05 -1.0285985414158953e-05 -1.2039632164935739e-05 -1.7539320352183314e-05 -1.655382839025407e-05 -1.5564984694625337e-05 -2.1406241885374433e-05 -2.2902607218425903e-05 -1.6185336226787448e-05 -1.9058950580578901e-05 -2.599009239477619e-05 -1.9753372258886089e-05 -2.07045415404113e-05 -2.0704055209352237e-05 -3.0208313374701124e-05 -1.1701894437881188e-05 -9.5917067352030477e-06 -1.5346042857391249e-05 -1.4869158045849866e-05 -9.5303930839637573e-06 -1.6703306040577692e-05 -1.4815120559304374e-05 -1.2620452142553498e-05 -9.2348971592786508e-06 -5.9519765889375165e-06 -5.822202472417846e-06 -4.9906322148697363e-06 -2.6960364181374733e-06 -9.7172719292908917e-06 8.297476383414865e-07 -9.5162138914104782e-07 -1.1233140541291891e-06 3.5858649148459465e-06 1.4310225296532329e-06 1.0575006636710983e-08 4.3643813693079741e-06 5.213899432839567e-06 -5.3311927868387868e-06 -7.8378364055341961e-06 -1.1297785755691101e-06 -2.7349860987678026e-06 -4.1773030672511902e-06 -6.1143931946399291e-06 -1.1058866681096181e-06 -5.7451501764082353e-06 1.1354812548375809e-05 -1.2695425286854872e-07 4.4994113849747599e-06 6.7864030255505267e-06 1.2047373037463009e-05 8.7428001341264953e-06 8.5947832939663161e-06 9.6179156567503457e-06 1.87317644362513e-05 -2.3230722162212686e-06 2.7895654448477673e-06 2.8353720889264249e-06 -5.5042845796473975e-06 -7.7328603720668173e-06 -1.3075451624862961e-05 -1.5293361826134315e-05 -1.9433453150052843e-05 -2.2519565383259882e-05 -3.2122380427959956e-05 -2.3144019602273059e-05 -2.3207936171067232e-05 -2.4804102063793216e-05 -1.9488483007827772e-05 -3.174755209358168e-05 -2.2314487034649871e-05 -1.4171922166075452e-05 -9.8526633649123987e-06 -1.6187114444139247e-05 1.8427968528798874e-05 1.6835713214303657e-05 1.4355113549034854e-05 1.6310707526257412e-05 1.8410777541323138e-05 2.1473280155724942e-05 1.9110161518831891e-05 1.8430291454743259e-05 1.8773409273345654e-05 1.7756354795799799e-05 1.5869233576208817e-05 1.7260684322574079e-05 1.7365743073365721e-05 1.7095223040359007e-05 1.8489368247945048e-05 3.5735944826623903e-05 1.62201912440163e-05 2.5340791753739012e-05 1.6342338984525001e-05 3.3090565718467294e-05 2.2651959250722864e-05 3.3848204943264316e-05 1.8490118996973941e-05 1.5709981337507635e-05 2.0838745574422295e-05 1.2019934839909993e-05 1.2991246903973593e-05 1.8701195843870844e-05 1.3496624958720771e-05 1.8384090981109628e-05 1.0889597709880373e-05 1.648536610638292e-05 1.2724391376834555e-05 1.1602906804123895e-05 8.3779930105497607e-06 9.5653141123246763e-06 1.0211988339284316e-05 9.2873673482414196e-06 5.2251643319952932e-06 7.2261524604235024e-06 5.9493106443576504e-06 4.4171498872792293e-06 2.5047477413430197e-06 1.0038230902806525e-05 9.3762059730960549e-06 8.2887446045177323e-06 7.4624004885030588e-06 1.0631954733679017e-05 9.405240219871854e-06 1.2491474868517377e-05 1.2452867380188135e-05 1.2282636042690969e-05 1.3465731768536953e-05 1.1494434914936097e-05 1.6653958995016351e-05 1.4594670336764908e-05 1.3847072268447328e-05 1.7081107858423959e-05 1.3327681663731405e-05 2.3059824153484231e-05 1.5992302882039313e-05 1.9393411836098368e-05 1.5530396298444089e-05 1.8569262322663867e-05 1.875054667909809e-05 1.5050318465195201e-05 1.5509320425168593e-05 1.5744308447870246e-05 1.3574521351915851e-05 1.0953540417142777e-05 1.2641169896376627e-05 1.2898555729070667e-05 1.0217022507297713e-05 9.0191051794187426e-06 1.0244196407004452e-05 1.1546676005202392e-05 9.9040406409933583e-06 9.5498172464329394e-06 7.9285124184521957e-06 1.0671561850400973e-05 1.0433797508566583e-05 1.2165982492186086e-05 1.1196849196396767e-05 1.1363282071966187e-05 2.9930738465190452e-06 4.4996482573554516e-06 2.4183952977776124e-06 5.6423568316661586e-06 5.9732367704195363e-06 6.7531811207074022e-06 7.5991746891511954e-06 8.206021393669875e-06 7.550372677776335e-06 6.5928206112034964e-06 7.4725771042238329e-06 5.8053610978664581e-06 4.7765323329824802e-06 2.5526270641525733e-06 1.9758947487823561e-06 2.0385181831436005e-06 -1.4907137825619202e-07 1.1863107064564955e-06 -6.5821927670361242e-08 1.3377037042718601e-06 3.6067711560534341e-06 3.4363668697542827e-06 4.0246124965484657e-06 5.2627646484272903e-06 5.8691080124055493e-06 7.1796665386166599e-06 6.5134977623553487e-06 5.2666825580672438e-06 5.4808684466976151e-06 2.5243321557053569e-06 1.8516229418332175e-06 -5.1833447011822513e-07 1.0707405061124078e-05 1.0564284152166714e-05 9.1635963759815425e-06 9.0383392194414774e-06 8.0131347952382252e-06 9.2180546065866446e-06 8.7315778849289573e-06 7.8448517500058104e-06 1.0680230879098855e-05 9.4256735836898107e-06 1.1476440878357025e-05 9.5973837393955739e-06 1.0230656702118168e-05 1.1947763774794367e-05 1.065367790082867e-05 1.3804747546060364e-05 1.0160752927481241e-05 1.2300223745354273e-05 1.1666657007320871e-05 1.1552881047909534e-05 1.0540586475497385e-05 1.2443884452131916e-05 1.0639958482699806e-05 1.0411884016538998e-05 9.3616390253204985e-06 1.1293436349329958e-05 1.0965447622871494e-05 1.3669875571648253e-05 1.3467332061510457e-05 1.015002751654218e-05 1.1225194531051451e-05 1.0906150658674909e-05 7.8133077681932442e-06 6.8557474965162545e-06 4.5822519125137977e-06 1.2068712970562343e-06 3.2098684584174467e-06 5.1920867590806212e-06 7.9059133359784007e-06 2.9707020913444809e-06 6.4986450962719984e-06 8.6197153028600786e-06 1.0288445153314091e-05 1.0270874822361148e-05 9.1875673553513071e-06 1.2252780180809826e-05 6.535014590045688e-06 4.7971401372320612e-06 7.1655291896812095e-06 8.1389988855684934e-06 2.6834851496053169e-06 6.4343754840233563e-06 9.3942435239415807e-06 7.8709179073071368e-06 1.3992474424249085e-05 9.9494337958643224e-06 9.0358312767554089e-06 1.1630794683067403e-05 1.1386571223371495e-05 1.3403424560524873e-05 1.7815398252822143e-05 1.5453423996181083e-05 1.6446247284249587e-05 1.3303787636682809e-05 1.4889241584043425e-05 1.735109152281877e-05 1.4321917045339526e-05 1.6087209815335228e-05 1.2876937389762383e-05 1.2512292433352097e-05 1.2197895286791821e-05 1.3319447094245689e-05 1.0834770831726491e-05 1.269066677920632e-05 1.0816332815782255e-05 1.1976698315282791e-05 1.1055700736895999e-05 1.2171361135618677e-05 1.3087394267255503e-05 -2.3911294439503271e-05 -1.6402300005606308e-05 -1.779164356427966e-05 -1.445753303627326e-05 -1.2878527889802822e-05 -1.5302900743826379e-05 -1.7299927870960805e-05 -1.5118019343356571e-05 -1.4278565347926767e-05 -1.2709544980651922e-05 -1.3691066998245508e-05 -1.3681990874349507e-05 -1.2908304083329754e-05 -8.3539209468179782e-06 -1.2802253551794918e-05 -1.9550908534359244e-05 -7.9060481890570659e-06 -1.5195038704746533e-05 -7.8749244093824723e-06 -7.1418618288217729e-06 -7.9277048940357911e-06 -6.7522975248875927e-06 -8.0291089767501522e-06 -3.582647510266294e-06 -3.9499269961006006e-06 -1.8245085651477773e-06 -2.6166518607639824e-06 1.8200539854964814e-06 3.3789553057712635e-06 -3.127637744078005e-07 -1.7083876686260804e-06 -1.3537515904602036e-06 6.2369929329344137e-07 3.823062518077897e-06 -2.6193804883501332e-06 2.4639620226765372e-06 -2.9206075076639949e-07 -3.6489325647041553e-06 3.8401860717865125e-06 -2.2127638972448527e-06 -7.6898563252687074e-07 -1.0878289003527796e-05 -9.1089652949836586e-06 -8.560889313574258e-06 -1.7133483717413685e-06 -7.0100102446225016e-06 -1.3922675841519731e-05 -1.1373470035002844e-05 -1.6797076867516836e-05 -1.2880102114921044e-05 -1.7514450547822238e-05 -9.1826139054565922e-06 -1.530553820690618e-05 -2.6537726562756099e-05 -2.789220490626475e-05 -3.3487227429604107e-05 -2.3710312223292107e-05 -2.8016505050003965e-05 -1.7338160083862035e-05 -2.472985939667939e-05 -1.6526373047446108e-05 -3.3818070413387632e-05 -5.1666747647912753e-05 -3.1269255617240023e-05 -3.1969025304114291e-05 -4.4040374034288261e-05 -3.8336715807894099e-05 -2.5452545925392735e-05 -2.962012693899287e-05 -2.7805152938752227e-05 -1.5974529820340581e-05 -1.7519401865865857e-05 -1.3452754391831717e-05 -1.4621251293155739e-05 -2.1920259317934727e-05 -1.6635196405273212e-05 -1.18982407267115e-06 5.0720391826282062e-06 5.8986355721452505e-06 -1.0855732816055356e-05 -4.1443230601613501e-06 -1.2741228375033894e-05 -6.9967517704288111e-06 -4.5222051362623995e-06 2.3234524669685686e-06 -4.0025996982881733e-06 2.5784283652979024e-06 1.0009794692926589e-05 5.671395860099198e-06 1.2552594834125767e-05 5.5128461253767657e-06 1.1869817473396966e-05 1.9919346264188102e-05 8.6377334172387641e-06 1.8182905927315278e-05 2.0319789978321622e-05 3.5104195925165558e-05 3.4162800078664029e-05 1.6435184091428883e-05 1.3996553681343686e-05 3.7127644051480359e-05 6.3073588213290763e-05 5.6923644023485579e-05 6.17664039078722e-05 3.972893261056234e-05 2.6813987977466889e-05 3.3154856989333937e-05 2.5027643369507385e-05 7.6353879748608739e-06 5.5538613454005688e-06 7.9354486880856391e-07 -6.1273674163929246e-06 1.7531822882822245e-05 -4.1892956779986427e-06 -2.0064568992571893e-05 -2.2251912971237497e-05 -1.0670779431828275e-05 -1.6151435958301464e-05 -1.1579994419243461e-05 -2.6336381816285396e-05 -1.5172285221536368e-05 -2.2907142513768489e-05 -3.2991378232665033e-05 -3.3542622040311335e-05 -5.0445571244490874e-05 -3.7737035765052603e-05 -5.3503728607795292e-05 -4.0142896005869742e-05 -2.9685998050615045e-05 -3.6740740852139948e-05 2.5427958096023158e-05 2.8775184449394196e-05 2.958219425928723e-05 2.8127532370183524e-05 2.5787958617268087e-05 2.1243865771844234e-05 1.8599120017977154e-05 2.4259934156741235e-05 1.7105438031636523e-05 1.9702161024437289e-05 1.4441886064190338e-05 1.9535212134366038e-05 1.6683197437218494e-05 2.0341290610487308e-05 2.1751460439742935e-05 1.9091849515443014e-05 1.7172881732461679e-05 1.3668744058272693e-05 2.0848001537220364e-05 1.9250819557752921e-05 2.3743177635451398e-05 1.3493545183984401e-05 1.7307280391707125e-05 2.2042431182756034e-05 2.7395690795233039e-05 3.4845903614196065e-05 2.6723143072162348e-05 2.916059880072027e-05 2.9428872471948641e-05 3.6089082837759939e-05 4.1898986455898165e-05 5.2116595188134998e-05 5.7200233866311971e-05 5.1048747644786409e-05 4.4330608472403774e-05 4.8643856369191707e-05 5.9478998760940558e-05 5.7017712995717344e-05 0.00010224993635829794 0.00012856431553306318 0.00012167379521360518 8.0516428448229924e-05 4.1984456232461447e-05 5.7560503776567213e-05 7.3667535540620095e-05 3.9917435237858372e-05 4.3988218962839959e-05 4.6240986289019752e-05 3.2252567598414289e-05 4.1459594042742843e-05 2.5985633086602899e-05 3.5004947863533335e-05 2.569811531465923e-05 3.6661097105699695e-05 2.1216962821095074e-05 2.7445149919292339e-05 2.9109620978706731e-05 2.5131627190231707e-05 2.1388288332305825e-05 3.3988909075091111e-05 2.2831643762227986e-05 1.822789433433875e-05 2.5051133372668806e-05 1.3616891494686083e-05 1.158465272356544e-05 1.7166109165844812e-05 1.6690705269584762e-05 9.8592670263826965e-06 1.4007244735142108e-05 8.4094042705702064e-06 1.4846019532506011e-05 2.9570476678105289e-05 2.7177121660493563e-05 2.3567366423443549e-05 2.8872461001677659e-05 4.0664004128858295e-05 4.4837275877750723e-05 5.3752215403790165e-05 0.00013678491527704126 1.4104369267831196e-05 4.9699392066624175e-05 0.00012783276706817079 7.7619348605234296e-05 0.0080344820664800688 0.0001120954243975645 5.3785979378710388e-05 0.019864494005841157 1.1839659669000529e-05 5.1457093167679415e-05 0.027942194953785603 1.5215137545885823e-05 3.3795065664455736e-05 9.2709922203768085e-06 1.9598878938397146e-05 1.5466305766716123e-05 1.2021132450430261e-05 9.4507991509568752e-06 2.3823985184203171e-05 2.2749911451379589e-05 1.3097306251816116e-05 2.8453878001599925e-05 4.4788392534535291e-05 4.7910443383534173e-05 0.034859778000895 4.451601260562041e-05 4.1526322234707079e-05 3.6594116141831106e-05 4.5355623776578528e-05 3.2771751354736419e-05 0.041474116936031681 4.2069376390430589e-05 1.4993358377200132e-05 9.5453119375641217e-06 2.9879335193546411e-05 1.7552388464172488e-05 1.9188785979008447e-05 7.7874844649435159e-06 7.7890740766192853e-06 9.737783358284383e-06 7.1607892594500924e-06 5.413928336377616e-06 3.4796631567288105e-06 8.3446412145110399e-06 7.6270186547388458e-06 7.5126028784447206e-06 8.4211068659230046e-06 6.2228432234093191e-06 1.1778584605563226e-05 9.5330384724497794e-06 6.9349538965746561e-06 5.6651553792706419e-06 1.0141282663061113e-05 -2.6998728132762717e-05 -3.0542131898460517e-05 -1.8738579495906579e-05 -4.1869374281246392e-05 -4.333472061682789e-05 -2.7847833865504538e-05 -2.7454601012883069e-05 -1.6232344411394345e-05 -7.6028529136450921e-06 1.8330579930026739e-06 -1.2017574660187617e-05 -5.833102071913296e-06 -1.7978615588431558e-05 -7.7479139410339699e-06 1.4754203155694647e-05 3.2771899663926489e-06 2.9006089924317192e-05 6.5479523338228887e-06 -6.6886105868460858e-06 1.6320747724992281e-05 1.1598429364947384e-05 4.2954204165376007e-05 6.7605001234719074e-05 4.7903991157042032e-05 4.875087173632804e-05 2.2357625387925883e-05 2.9424353344013725e-05 3.3817151442159382e-05 1.4769320304584594e-05 1.3000592875073895e-05 2.4553977352975969e-05 2.3701741106069412e-05 2.4727486903354436e-05 1.9634888471630606e-05 1.267500370204103e-05 1.2660607598400037e-05 3.41287652254419e-06 3.9808409321619441e-06 5.0950873460174542e-06 -5.0354254587289251e-06 6.3690572186052806e-06 6.631734823370932e-06 -1.7415311466988711e-06 -1.5168263776671595e-06 -1.0709046962878921e-05 -9.7425905767761585e-06 -9.6071590290148015e-06 -1.1458855774846004e-05 -2.636213726658421e-06 -5.0683239383512405e-06 -5.9082126792975072e-06 -1.022941419034592e-05 -1.1759438222395729e-05 -1.5991514931690525e-05 -8.2766929978497382e-06 -1.316614889158602e-05 -2.410748543707009e-05 -2.0142636176825315e-05 -1.79724365516568e-05 -1.4018762555280802e-06 -6.1910518238243208e-06 -2.0916078250143508e-06 -6.5147261004527661e-06 -6.4709287994315278e-06 -1.137829099103968e-05 -1.176851825304779e-05 -8.1443697401094826e-06 -6.711991400309026e-06 -3.4041373275332798e-06 -2.8998990308467306e-06 4.965510751885234e-07 1.3824851481311629e-07 -4.1931249167143341e-06 -1.2121328696698035e-07 5.3862632807253653e-06 5.210203095997552e-06 1.0123296505856446e-05 -1.5193842819332705e-06 -2.8464147214261794e-06 4.2031791392260634e-06 4.5274273331246621e-06 7.0253855874100046e-06 3.8227899964351358e-06 1.5097436770121746e-05 1.575501138787014e-05 1.19872431273765e-05 1.8353714969477426e-05 2.9572912698075816e-05 2.0239390602015813e-05 2.7548010172463635e-05 1.1251352202863314e-05 1.6500254899789936e-05 2.8736709900708656e-05 2.0397111359678546e-05 3.103200114080518e-05 2.3465913308245729e-05 3.7779674518015165e-05 4.1159773692627628e-05 2.271553803075534e-05 1.5181975212707425e-05 2.9134069864885682e-06 4.0870631228050007e-06 5.5724061239449327e-06 4.498818360003376e-06 1.1914259835866386e-05 6.3856370207226575e-06 1.270724048379893e-05 2.5198195726023644e-07 -2.976225508426189e-06 1.5811920634411711e-07 -3.501162408104698e-07 -4.3430518629670144e-07 -1.7958531659937639e-06 -1.2823222784582797e-06 8.5570181107986337e-07 -6.1209321820365065e-07 -1.1308698938013173e-06 -2.1048327570629115e-08 -2.7726775482777438e-08 -3.8675749277272339e-07 4.5566662185310414e-07 -1.000358723111678e-06 -1.5213002205097899e-06 -4.2181106520958363e-06 5.7403538367626879e-06 1.5140296017949811e-05 1.4030320884127239e-05 1.0120776966249224e-05 4.229893399407191e-06 1.3838757106363671e-06 2.5856313421852807e-06 5.8054482082750493e-06 3.2902940521380847e-06 4.1126863839535845e-06 7.9757347059243719e-06 6.3035704429663386e-06 5.3856853913475486e-06 1.0952369682615032e-05 1.1636619748823504e-05 2.0138364797280656e-05 3.8128054810971935e-05 4.6213650603332249e-05 2.4762298054013685e-05 3.9199945581544179e-05 5.3576485322623293e-05 4.180114401923114e-05 0.047913669262554665 2.9233114242288843e-05 5.1714796138706623e-05 4.6032516147394243e-05 0.054410501429289986 5.194019754091667e-05 5.6001628665669186e-05 0.061067429112449757 4.5452523028553164e-05 2.5367885867197729e-05 5.1537730460122854e-05 2.3056125703656608e-05 3.1093940355382261e-05 3.5628136898043254e-05 2.5520313740197775e-05 6.1173271078468732e-05 6.2936195073410369e-05 4.1609224330632813e-05 6.411073222413249e-05 0.067959556079235081 7.6711663266095073e-05 7.1039272007704631e-05 5.5162728081847075e-05 6.4098004044955623e-05 0.07619698129552141 8.6182637041968407e-05 6.9350334691693771e-05 2.3502982254830431e-05 6.7443287452945383e-05 8.2900292733745782e-05 6.0596052194590447e-05 3.0797811206307582e-05 -5.669664647928738e-08 1.2507254240632325e-05 -4.2609829444663436e-06 1.342869589696029e-05 1.9708350482870382e-06 3.7968196959190805e-06 8.8409423843232734e-06 1.440878946965755e-05 -1.708789470650045e-06 1.4938242491304483e-06 -3.093515996951512e-06 1.1735425269572889e-06 -4.3340252844325773e-06 -8.7554605262463083e-06 -1.6404581779284552e-05 -1.007282776004472e-05 -2.0685531601030607e-05 -9.8755372991633956e-06 -8.2238060782287075e-06 -1.0369363985410316e-05 1.0515169589344958e-06 -9.6421424631737671e-06 -6.5649801336200176e-06 9.4099619603867177e-06 -1.161771646842328e-06 3.2074657618513943e-06 8.6417799632745635e-06 1.1045913609231562e-05 -2.4117195541039781e-06 4.073550996144381e-07 -2.361352589575524e-06 1.417402147632906e-06 2.7562878861605742e-06 3.9529299271767585e-06 4.7838155877866087e-06 1.5133161594578504e-06 5.1691902485102414e-06 3.4381106246619136e-06 1.0150050533633521e-05 1.701025864101033e-05 7.9873015682265435e-06 7.2060679664975543e-06 1.050640109279244e-05 1.4837151946390766e-05 9.3926447964464414e-06 5.3230251551628408e-06 7.0461279530135358e-06 4.0433865564645875e-06 5.3479630626677867e-06 6.5909954991954774e-06 3.5712685628503651e-05 0.027831306011551468 3.8691132074196617e-05 3.2984480043053818e-05 2.7003394068000994e-05 1.5539318093813877e-05 1.8685010932781158e-05 1.6324473250252857e-05 3.4349642627838698e-05 2.5709770219496967e-05 2.7985818098450905e-05 2.0179541014475892e-05 4.3334421647483112e-05 5.1954568521918668e-05 3.5808669827826255e-05 3.3976664768754815e-05 0.04281334704496545 4.3321348398964383e-05 4.2623898439402398e-05 0.034775731826427306 5.1890819838904412e-05 0.052081641431059644 6.6719085885967686e-05 5.8441608724054397e-05 4.3879529784594806e-05 2.2519368777747962e-05 3.0125606779715815e-05 5.2736091291277548e-05 3.5254127641763063e-05 1.5819043521979564e-05 5.7222735054281984e-05 7.5828001962083524e-05 4.9152835759506313e-05 2.4340426633863468e-05 5.4862338714159941e-05 0.063024753295374381 8.1023713492118631e-05 5.9554083948362658e-05 3.2240213295083665e-05 1.3721139873368706e-05 1.7915429247004119e-05 2.9123258943209064e-05 5.7917841273275213e-06 -2.3808460185997544e-06 1.2741680104138512e-06 -5.9721799582751998e-07 8.6788572287524197e-06 2.6787156444838759e-06 2.1946836140877141e-06 8.1314071677320195e-06 2.1192942650409631e-05 2.6449381197248684e-05 1.2210839319556747e-05 4.5814768608628924e-07 -8.7703360654141707e-07 -3.5904468864643165e-07 -4.6504037503908996e-07 -2.9277495110684518e-06 -2.5090580592533e-06 7.0176482396639914e-08 -3.2200117378018787e-06 -6.0703870718542841e-06 -4.4204356057806014e-06 -3.1973775278944477e-06 -7.0067307923170216e-06 -1.8968613655683734e-06 -1.3649212635374712e-06 -3.7560118257552689e-06 -7.5813028368285306e-06 -2.0246931334909173e-06 -1.0710547150104017e-05 -3.2171133201811669e-06 -5.0556098366256541e-06 -1.0864939430184464e-05 -6.6563466584947551e-06 -1.0083450834336583e-06 -2.0820521811194901e-06 -1.6016486364322721e-06 -6.7513681171432575e-06 -5.4679812598005875e-06 -3.5625434924638471e-07 -7.7969967180203112e-06 -1.0455687385701887e-05 -1.3148297472316192e-05 -1.1793808718322304e-05 -1.7664456063772819e-05 -1.144215368523117e-05 1.5738730052871947e-05 1.090091714458629e-05 2.236878887389149e-05 1.3527607571739604e-05 2.7121951545766186e-06 2.0596055763484004e-06 8.3475387811489474e-06 7.3502158742794329e-06 3.1095874938057199e-06 1.0914320690923575e-06 2.8970383248181822e-06 1.4606872821935619e-05 1.0359795636251043e-05 2.4543885043432773e-05 1.9102751577127907e-05 2.2477525336228588e-05 1.5722008193446921e-05 1.7396382612283687e-05 2.0159590799376172e-05 9.7788550175275908e-06 1.1573048637773272e-05 7.8374222023331122e-06 6.9012773726826772e-07 -6.16722289924535e-07 8.1667618458635042e-06 2.3866716526047905e-06 6.9140674532121868e-06 -8.7488960720012591e-07 1.7579569057210739e-06 1.6516364267264643e-05 1.9557914142493598e-05 1.8497163347831378e-05 8.1899999150808554e-06 1.5219999894156965e-05 -1.7055073989773813e-05 -2.0073412364852072e-05 -1.7851904329430488e-05 -2.1590188210212106e-05 -1.4007874873138795e-05 -7.246557640290367e-06 -1.1956108284412394e-05 -6.0596319257423016e-06 -5.6045038200816652e-06 -7.3115044869757114e-06 -5.2553363555507588e-06 -4.638395732787094e-06 -9.2433834173009836e-06 -1.3182598984440156e-05 -1.3607364607658417e-05 -1.4205149659888422e-05 -1.9681569187068697e-05 -1.9807845892574893e-05 -2.5239490445790242e-05 -3.1951489711978928e-05 -2.7758768751138336e-05 -2.2511361498302337e-05 -1.8895680234289525e-05 -1.5345330662741596e-05 -6.75378501961265e-06 -7.4137961096312939e-06 -4.0357145054147926e-06 -1.1441416043057591e-05 -1.0024045881271978e-05 -1.3774508086137894e-05 -1.5302210647634451e-05 -2.2374810038460488e-05 -2.0059325598746402e-05 -3.0257564642132982e-05 1.0579296394983316e-05 2.3332390135525244e-05 1.0263486968609906e-05 6.541040010668922e-06 -1.1779761375435094e-06 1.7036637452691494e-06 8.5354382477574185e-06 3.1384358820628344e-06 -8.0481380916782035e-06 -3.4051823097104312e-06 1.8288059903629351e-06 1.2320906185244143e-05 1.3519826855131135e-05 2.4588837844875024e-05 4.0009903146926253e-05 5.3583457974037984e-07 5.2305026214153727e-05 0.0034315039263624249 2.423149948921547e-05 2.4251515929973964e-05 0.0087407775312445934 3.6529974310931456e-05 0.012671360667736538 2.8391022042628851e-05 2.3864966044244017e-05 7.5356058981066994e-06 9.1932119941383946e-06 1.0402938193066916e-05 1.0124164261776625e-06 1.2347227623727574e-05 4.1801333640011548e-06 1.9958115459789822e-05 1.1388059740945731e-05 8.5015572615946086e-06 1.580493439580771e-05 1.3036888071019719e-05 1.5222017471037865e-05 2.0150057762413452e-05 1.8637368470615366e-05 1.4625926285473603e-05 1.2395678595652332e-05 1.2619854763312575e-05 1.1459066112840042e-05 9.2486736713006052e-06 9.9723808202281406e-06 9.9264638373901812e-06 1.0226245937301347e-05 9.3175105707842248e-06 8.5620049826436417e-06 1.0077359147980607e-05 1.1644668148136616e-05 9.7873137423690594e-06 1.0296397912963556e-05 1.0255722717212278e-05 9.3148792419647569e-06 8.6114006828259206e-06 3.6620608380996201e-06 6.6135900519973196e-06 8.9507823961280019e-06 1.2435255023845722e-05 1.0495492548721821e-05 9.2976713824118805e-06 8.5996798937328154e-06 1.2406613695097821e-05 1.3276203449549416e-05 1.8047316743045189e-05 1.6158699803475263e-05 1.4697756952291793e-05 2.2677373064215831e-05 3.4402572095382244e-05 0.021942442497770637 2.6537577232541097e-05 2.9824448353728836e-05 2.7830182075160243e-05 3.3088993678229237e-05 1.8619123723262137e-05 0.016959842523919643 2.8095870691663633e-05 2.1894546600811926e-05 3.2527440403756454e-05 1.21624724383166e-05 1.103728327446123e-05 1.104988895122331e-05 1.6766879892409268e-05 
</DataArray>
</CellData>
</Piece>
</UnstructuredGrid>
</VTKFile>
