<?xml version="1.0"?>
<VTKFile type="UnstructuredGrid" version="0.1" byte_order="LittleEndian">
<UnstructuredGrid>
<Piece NumberOfPoints="84" NumberOfCells="28">
<Points>
<DataArray type="Float64" NumberOfComponents="3" format="ascii">
0 0 0 0.29166666666652658 0.2916666666668038 0 0 0.33333333333472032 0 0 0 0 0.33333333333250248 0 0 0.29166666666652658 0.2916666666668038 0 0.49999999999981742 0.1726190476194705 0 0.33333333333250248 0 0 0.66666666666578889 0 0 0.49999999999981742 0.1726190476194705 0 0.33333333333250248 0 0 0.29166666666652658 0.2916666666668038 0 0.29166666666652658 0.2916666666668038 0 0.17261904761971569 0.50000000000021494 0 0.50000000000004996 0.49999999999997519 0 0.49999999999981742 0.1726190476194705 0 0.29166666666652658 0.2916666666668038 0 0.50000000000004996 0.49999999999997519 0 0.29166666666652658 0.2916666666668038 0 0 0.33333333333472032 0 0.17261904761971569 0.50000000000021494 0 0 0.33333333333472032 0 0.17261904761971569 0.50000000000021494 0 0 0.66666666666759111 0 0.17261904761971569 0.50000000000021494 0 0 0.66666666666759111 0 0.29166666666684449 0.7083333333334445 0 0 1 0 0.33333333333472032 1 0 0.29166666666684449 0.7083333333334445 0 0 0.66666666666759111 0 0 1 0 0.29166666666684449 0.7083333333334445 0 0.33333333333472032 1 0 0.29166666666684449 0.7083333333334445 0 0.50000000000021227 0.82738095238030207 0 0.17261904761971569 0.50000000000021494 0 0.29166666666684449 0.7083333333334445 0 0.50000000000004996 0.49999999999997519 0 0.29166666666684449 0.7083333333334445 0 0.50000000000021227 0.82738095238030207 0 0.50000000000004996 0.49999999999997519 0 0.70833333333346027 0.70833333333323512 0 0.82738095238054699 0.49999999999982031 0 0.50000000000004996 0.49999999999997519 0 0.70833333333346027 0.70833333333323512 0 0.50000000000021227 0.82738095238030207 0 0.50000000000004996 0.49999999999997519 0 0.70833333333346027 0.70833333333323512 0 0.66666666666759111 1 0 0.50000000000021227 0.82738095238030207 0 0.33333333333472032 1 0 0.66666666666759111 1 0 0.50000000000021227 0.82738095238030207 0 0.70833333333346027 0.70833333333323512 0 1 1 0 1 0.66666666666578889 0 0.70833333333346027 0.70833333333323512 0 0.66666666666759111 1 0 1 1 0 0.70833333333346027 0.70833333333323512 0 1 0.66666666666578889 0 0.82738095238054699 0.49999999999982031 0 1 0.66666666666578889 0 1 0.33333333333250248 0 0.82738095238054699 0.49999999999982031 0 1 0.33333333333250248 0 0.82738095238054699 0.49999999999982031 0 0.70833333333327586 0.2916666666665107 0 1 0 0 0.66666666666578889 0 0 0.70833333333327586 0.2916666666665107 0 1 0.33333333333250248 0 1 0 0 0.70833333333327586 0.2916666666665107 0 0.49999999999981742 0.1726190476194705 0 0.66666666666578889 0 0 0.70833333333327586 0.2916666666665107 0 0.82738095238054699 0.49999999999982031 0 0.50000000000004996 0.49999999999997519 0 0.70833333333327586 0.2916666666665107 0 0.49999999999981742 0.1726190476194705 0 0.50000000000004996 0.49999999999997519 0 0.70833333333327586 0.2916666666665107 0 
</DataArray>
</Points>
<Cells>
<DataArray type="UInt32" Name="connectivity" format="ascii">
0 1 2 3 4 5 6 7 8 9 10 11 12 13 14 15 16 17 18 19 20 21 22 23 24 25 26 27 28 29 30 31 32 33 34 35 36 37 38 39 40 41 42 43 44 45 46 47 48 49 50 51 52 53 54 55 56 57 58 59 60 61 62 63 64 65 66 67 68 69 70 71 72 73 74 75 76 77 78 79 80 81 82 83 
</DataArray>
<DataArray type="UInt32" Name="offsets" format="ascii">
3 6 9 12 15 18 21 24 27 30 33 36 39 42 45 48 51 54 57 60 63 66 69 72 75 78 81 84 
</DataArray>
<DataArray type="UInt32" Name="types" format="ascii">
5 5 5 5 5 5 5 5 5 5 5 5 5 5 5 5 5 5 5 5 5 5 5 5 5 5 5 5 
</DataArray>
</Cells>
<PointData Scalars="" Vectors="displacement," Tensors="">
<DataArray type="Float64" Name="displacement" NumberOfComponents="3" format="ascii">
-3.8783083691001801e-14 -2.7777786385437866e-08 0 9.1152526101971271e-06 -2.7370834758121615e-05 0 -1.1991006928143812e-14 -3.1276979758412425e-05 0 -3.8783083691001801e-14 -2.7777786385437866e-08 0 1.0417425340104187e-05 -2.7777756213022619e-08 0 9.1152526101971271e-06 -2.7370834758121615e-05 0 1.5626145610024908e-05 -1.6210410745102497e-05 0 1.0417425340104187e-05 -2.7777756213022619e-08 0 2.0834841973024329e-05 -2.7777918577408956e-08 0 1.5626145610024908e-05 -1.6210410745102497e-05 0 1.0417425340104187e-05 -2.7777756213022619e-08 0 9.1152526101971271e-06 -2.7370834758121615e-05 0 9.1152526101971271e-06 -2.7370834758121615e-05 0 5.3947508332878915e-06 -4.6901584533285216e-05 0 1.5626176797529595e-05 -4.6901622250794216e-05 0 1.5626145610024908e-05 -1.6210410745102497e-05 0 9.1152526101971271e-06 -2.7370834758121615e-05 0 1.5626176797529595e-05 -4.6901622250794216e-05 0 9.1152526101971271e-06 -2.7370834758121615e-05 0 -1.1991006928143812e-14 -3.1276979758412425e-05 0 5.3947508332878915e-06 -4.6901584533285216e-05 0 -1.1991006928143812e-14 -3.1276979758412425e-05 0 5.3947508332878915e-06 -4.6901584533285216e-05 0 -4.103265456434434e-15 -6.2526187958517122e-05 0 5.3947508332878915e-06 -4.6901584533285216e-05 0 -4.103265456434434e-15 -6.2526187958517122e-05 0 9.1152894921051111e-06 -6.6432352681818039e-05 0 7.0971619268504061e-14 -9.3775403284195537e-05 0 1.0417506415881713e-05 -9.3775428302632268e-05 0 9.1152894921051111e-06 -6.6432352681818039e-05 0 -4.103265456434434e-15 -6.2526187958517122e-05 0 7.0971619268504061e-14 -9.3775403284195537e-05 0 9.1152894921051111e-06 -6.6432352681818039e-05 0 1.0417506415881713e-05 -9.3775428302632268e-05 0 9.1152894921051111e-06 -6.6432352681818039e-05 0 1.5626228051831545e-05 -7.7592825159768434e-05 0 5.3947508332878915e-06 -4.6901584533285216e-05 0 9.1152894921051111e-06 -6.6432352681818039e-05 0 1.5626176797529595e-05 -4.6901622250794216e-05 0 9.1152894921051111e-06 -6.6432352681818039e-05 0 1.5626228051831545e-05 -7.7592825159768434e-05 0 1.5626176797529595e-05 -4.6901622250794216e-05 0 2.2137121209219092e-05 -6.6432442297480586e-05 0 2.5857602957400951e-05 -4.69017042783196e-05 0 1.5626176797529595e-05 -4.6901622250794216e-05 0 2.2137121209219092e-05 -6.6432442297480586e-05 0 1.5626228051831545e-05 -7.7592825159768434e-05 0 1.5626176797529595e-05 -4.6901622250794216e-05 0 2.2137121209219092e-05 -6.6432442297480586e-05 0 2.0835029009291832e-05 -9.3775514369144299e-05 0 1.5626228051831545e-05 -7.7592825159768434e-05 0 1.0417506415881713e-05 -9.3775428302632268e-05 0 2.0835029009291832e-05 -9.3775514369144299e-05 0 1.5626228051831545e-05 -7.7592825159768434e-05 0 2.2137121209219092e-05 -6.6432442297480586e-05 0 3.1252459775663138e-05 -9.3775841911761108e-05 0 3.1252235987579797e-05 -6.252639592622814e-05 0 2.2137121209219092e-05 -6.6432442297480586e-05 0 2.0835029009291832e-05 -9.3775514369144299e-05 0 3.1252459775663138e-05 -9.3775841911761108e-05 0 2.2137121209219092e-05 -6.6432442297480586e-05 0 3.1252235987579797e-05 -6.252639592622814e-05 0 2.5857602957400951e-05 -4.69017042783196e-05 0 3.1252235987579797e-05 -6.252639592622814e-05 0 3.1252180059980982e-05 -3.1277132433094417e-05 0 2.5857602957400951e-05 -4.69017042783196e-05 0 3.1252180059980982e-05 -3.1277132433094417e-05 0 2.5857602957400951e-05 -4.69017042783196e-05 0 2.2137075422569247e-05 -2.7370896308052681e-05 0 3.1252244256633825e-05 -2.7777530700499064e-08 0 2.0834841973024329e-05 -2.7777918577408956e-08 0 2.2137075422569247e-05 -2.7370896308052681e-05 0 3.1252180059980982e-05 -3.1277132433094417e-05 0 3.1252244256633825e-05 -2.7777530700499064e-08 0 2.2137075422569247e-05 -2.7370896308052681e-05 0 1.5626145610024908e-05 -1.6210410745102497e-05 0 2.0834841973024329e-05 -2.7777918577408956e-08 0 2.2137075422569247e-05 -2.7370896308052681e-05 0 2.5857602957400951e-05 -4.69017042783196e-05 0 1.5626176797529595e-05 -4.6901622250794216e-05 0 2.2137075422569247e-05 -2.7370896308052681e-05 0 1.5626145610024908e-05 -1.6210410745102497e-05 0 1.5626176797529595e-05 -4.6901622250794216e-05 0 2.2137075422569247e-05 -2.7370896308052681e-05 0 
</DataArray>
</PointData>
<CellData Scalars="displacement_divergence," Vectors="" Tensors="stress,">
<DataArray type="Float64" Name="stress" NumberOfComponents="9" format="ascii">
0.37112930944704203 -0.00071627937177254353 0 -0.00071627937177254353 -9999.6209212372123 0 0 0 -2499.8124479819417 0.36817666602109966 0.00075001184407870914 0 0.00075001184407870914 -9999.6238337586474 0 0 0 -2499.813914273157 0.36332786810437723 0.0027504167728680251 0 0.0027504167728680251 -9999.6299840004285 0 0 0 -2499.816664033081 0.37068887095847458 -0.00067390875437922659 0 -0.00067390875437922659 -9999.6235884033485 0 0 0 -2499.8132248830971 0.37609051873869248 -0.0013913359534853953 0 -0.0013913359534853953 -9999.6255436923675 0 0 0 -2499.812363293408 0.37287629138518241 0.00063592236483600573 0 0.00063592236483600573 -9999.6304384982832 0 0 0 -2499.8143905517245 0.37183588438529114 0.0012456705853765015 0 0.0012456705853765015 -9999.6210670906148 0 0 0 -2499.8123078015569 0.37698015096430026 -0.00015544609232165385 0 -0.00015544609232165385 -9999.6209639970621 0 0 0 -2499.810995961524 0.38289260702185857 0.00092194276567170164 0 0.00092194276567170164 -9999.6231367588462 0 0 0 -2499.8100610379561 0.39519932642178901 0.00092427405679927058 0 0.00092427405679927058 -9999.6204930928179 0 0 0 -2499.8063234415986 0.38469262778621555 -0.0017474696214776486 0 -0.0017474696214776486 -9999.6206733688978 0 0 0 -2499.8089951852776 0.38661748304411958 -0.0026308001852157759 0 -0.0026308001852157759 -9999.6218333711568 0 0 0 -2499.8088039720292 0.3778295675224399 -0.00074413276524865068 0 -0.00074413276524865068 -9999.6203265460226 0 0 0 -2499.8106242446252 0.3829013436106834 -0.00046851543493175996 0 -0.00046851543493175996 -9999.6242958527728 0 0 0 -2499.8103486272912 0.37532573237876932 -0.0029460378827934619 0 -0.0029460378827934619 -9999.6280292655792 0 0 0 -2499.8131758832988 0.37822048947600706 -0.0042130091815124615 0 -0.0042130091815124615 -9999.6258561374852 0 0 0 -2499.8119089120028 0.38792391552169647 0.0014674131452920847 0 0.0014674131452920847 -9999.627121926449 0 0 0 -2499.8097995027342 0.39839904264954384 -0.001137633961441445 0 -0.001137633961441445 -9999.6264925596479 0 0 0 -2499.8070233792496 0.2966425173854077 0.0084257240141596412 0 0.0084257240141596412 -9999.7238345050864 0 0 0 -2499.8567979969248 0.36243391802327096 -0.027422254885095754 0 -0.027422254885095754 -9999.6462339901154 0 0 0 -2499.8209500180246 0.3059178717649047 -0.020707145507458335 0 -0.020707145507458335 -9999.6589292348071 0 0 0 -2499.8382528407601 0.26900627011271711 -0.0071692895580781624 0 -0.0071692895580781624 -9999.6746490474943 0 0 0 -2499.8514106943444 0.29884012911315949 0.0048975884647006751 0 0.0048975884647006751 -9999.6571074466738 0 0 0 -2499.8395668293906 0.35143631018308952 0.0080233321804746103 0 0.0080233321804746103 -9999.6518833082337 0 0 0 -2499.8251117495129 0.29519263704789861 -0.016859570368069399 0 -0.016859570368069399 -9999.6951712452956 0 0 0 -2499.8499946520615 0.37090466633117103 0.0010122580129063863 0 0.0010122580129063863 -9999.6430602634664 0 0 0 -2499.8180388992837 0.37334914553775889 -0.0083074743855697224 0 -0.0083074743855697224 -9999.6339590261086 0 0 0 -2499.8151524701398 0.38101568691111659 -0.0048324241261070711 0 -0.0048324241261070711 -9999.6277253664357 0 0 0 -2499.8116774198807 
</DataArray>
<DataArray type="Float64" Name="displacement_divergence" format="ascii">
-6.2495311199548556e-05 -6.2495347856828917e-05 -6.2495416600827055e-05 -6.2495330622077436e-05 -6.2495309082335183e-05 -6.2495359763793142e-05 -6.2495307695038913e-05 -6.2495274899038134e-05 -6.249525152594889e-05 -6.2495158086039949e-05 -6.2495224879631915e-05 -6.2495220099300714e-05 -6.2495265606115678e-05 -6.2495258715682264e-05 -6.2495329397082463e-05 -6.2495297722800058e-05 -6.2495244987568322e-05 -6.2495175584481176e-05 -6.2496419949923163e-05 -6.2495523750450593e-05 -6.2495956321018988e-05 -6.2496285267358556e-05 -6.2495989170734746e-05 -6.249562779373783e-05 -6.2496249866301551e-05 -6.2495450972482099e-05 -6.2495378811753535e-05 -6.2495291935497007e-05 
</DataArray>
</CellData>
</Piece>
</UnstructuredGrid>
</VTKFile>
