<?xml version="1.0"?>
<VTKFile type="UnstructuredGrid" version="0.1" byte_order="LittleEndian">
<UnstructuredGrid>
<Piece NumberOfPoints="84" NumberOfCells="28">
<Points>
<DataArray type="Float64" NumberOfComponents="3" format="ascii">
0 0 0 0.29166666666652658 0.2916666666668038 0 0 0.33333333333472032 0 0 0 0 0.33333333333250248 0 0 0.29166666666652658 0.2916666666668038 0 0.49999999999981742 0.1726190476194705 0 0.33333333333250248 0 0 0.66666666666578889 0 0 0.49999999999981742 0.1726190476194705 0 0.33333333333250248 0 0 0.29166666666652658 0.2916666666668038 0 0.29166666666652658 0.2916666666668038 0 0.17261904761971569 0.50000000000021494 0 0.50000000000004996 0.49999999999997519 0 0.49999999999981742 0.1726190476194705 0 0.29166666666652658 0.2916666666668038 0 0.50000000000004996 0.49999999999997519 0 0.29166666666652658 0.2916666666668038 0 0 0.33333333333472032 0 0.17261904761971569 0.50000000000021494 0 0 0.33333333333472032 0 0.17261904761971569 0.50000000000021494 0 0 0.66666666666759111 0 0.17261904761971569 0.50000000000021494 0 0 0.66666666666759111 0 0.29166666666684449 0.7083333333334445 0 0 1 0 0.33333333333472032 1 0 0.29166666666684449 0.7083333333334445 0 0 0.66666666666759111 0 0 1 0 0.29166666666684449 0.7083333333334445 0 0.33333333333472032 1 0 0.29166666666684449 0.7083333333334445 0 0.50000000000021227 0.82738095238030207 0 0.17261904761971569 0.50000000000021494 0 0.29166666666684449 0.7083333333334445 0 0.50000000000004996 0.49999999999997519 0 0.29166666666684449 0.7083333333334445 0 0.50000000000021227 0.82738095238030207 0 0.50000000000004996 0.49999999999997519 0 0.70833333333346027 0.70833333333323512 0 0.82738095238054699 0.49999999999982031 0 0.50000000000004996 0.49999999999997519 0 0.70833333333346027 0.70833333333323512 0 0.50000000000021227 0.82738095238030207 0 0.50000000000004996 0.49999999999997519 0 0.70833333333346027 0.70833333333323512 0 0.66666666666759111 1 0 0.50000000000021227 0.82738095238030207 0 0.33333333333472032 1 0 0.66666666666759111 1 0 0.50000000000021227 0.82738095238030207 0 0.70833333333346027 0.70833333333323512 0 1 1 0 1 0.66666666666578889 0 0.70833333333346027 0.70833333333323512 0 0.66666666666759111 1 0 1 1 0 0.70833333333346027 0.70833333333323512 0 1 0.66666666666578889 0 0.82738095238054699 0.49999999999982031 0 1 0.66666666666578889 0 1 0.33333333333250248 0 0.82738095238054699 0.49999999999982031 0 1 0.33333333333250248 0 0.82738095238054699 0.49999999999982031 0 0.70833333333327586 0.2916666666665107 0 1 0 0 0.66666666666578889 0 0 0.70833333333327586 0.2916666666665107 0 1 0.33333333333250248 0 1 0 0 0.70833333333327586 0.2916666666665107 0 0.49999999999981742 0.1726190476194705 0 0.66666666666578889 0 0 0.70833333333327586 0.2916666666665107 0 0.82738095238054699 0.49999999999982031 0 0.50000000000004996 0.49999999999997519 0 0.70833333333327586 0.2916666666665107 0 0.49999999999981742 0.1726190476194705 0 0.50000000000004996 0.49999999999997519 0 0.70833333333327586 0.2916666666665107 0 
</DataArray>
</Points>
<Cells>
<DataArray type="UInt32" Name="connectivity" format="ascii">
0 1 2 3 4 5 6 7 8 9 10 11 12 13 14 15 16 17 18 19 20 21 22 23 24 25 26 27 28 29 30 31 32 33 34 35 36 37 38 39 40 41 42 43 44 45 46 47 48 49 50 51 52 53 54 55 56 57 58 59 60 61 62 63 64 65 66 67 68 69 70 71 72 73 74 75 76 77 78 79 80 81 82 83 
</DataArray>
<DataArray type="UInt32" Name="offsets" format="ascii">
3 6 9 12 15 18 21 24 27 30 33 36 39 42 45 48 51 54 57 60 63 66 69 72 75 78 81 84 
</DataArray>
<DataArray type="UInt32" Name="types" format="ascii">
5 5 5 5 5 5 5 5 5 5 5 5 5 5 5 5 5 5 5 5 5 5 5 5 5 5 5 5 
</DataArray>
</Cells>
<PointData Scalars="" Vectors="displacement," Tensors="">
<DataArray type="Float64" Name="displacement" NumberOfComponents="3" format="ascii">
-3.4871954323281922e-14 -2.7777815046102603e-08 0 9.1147853043363547e-06 -2.7371350567888378e-05 0 -1.703503223363898e-14 -3.127755984654251e-05 0 -3.4871954323281922e-14 -2.7777815046102603e-08 0 1.0416893037321811e-05 -2.777781313374713e-08 0 9.1147853043363547e-06 -2.7371350567888378e-05 0 1.5625317792030111e-05 -1.6210723933280742e-05 0 1.0416893037321811e-05 -2.777781313374713e-08 0 2.0833719559502689e-05 -2.7777758228265885e-08 0 1.5625317792030111e-05 -1.6210723933280742e-05 0 1.0416893037321811e-05 -2.777781313374713e-08 0 9.1147853043363547e-06 -2.7371350567888378e-05 0 9.1147853043363547e-06 -2.7371350567888378e-05 0 5.3944737911346224e-06 -4.6902455692277206e-05 0 1.5625335985635998e-05 -4.6902516338220551e-05 0 1.5625317792030111e-05 -1.6210723933280742e-05 0 9.1147853043363547e-06 -2.7371350567888378e-05 0 1.5625335985635998e-05 -4.6902516338220551e-05 0 9.1147853043363547e-06 -2.7371350567888378e-05 0 -1.703503223363898e-14 -3.127755984654251e-05 0 5.3944737911346224e-06 -4.6902455692277206e-05 0 -1.703503223363898e-14 -3.127755984654251e-05 0 5.3944737911346224e-06 -4.6902455692277206e-05 0 -3.044678725164939e-14 -6.252733217805128e-05 0 5.3944737911346224e-06 -4.6902455692277206e-05 0 -3.044678725164939e-14 -6.252733217805128e-05 0 9.1148144999868346e-06 -6.6433590172216509e-05 0 1.2983626534294398e-13 -9.377709608896512e-05 0 1.0416989008357058e-05 -9.3777176212579434e-05 0 9.1148144999868346e-06 -6.6433590172216509e-05 0 -3.044678725164939e-14 -6.252733217805128e-05 0 1.2983626534294398e-13 -9.377709608896512e-05 0 9.1148144999868346e-06 -6.6433590172216509e-05 0 1.0416989008357058e-05 -9.3777176212579434e-05 0 9.1148144999868346e-06 -6.6433590172216509e-05 0 1.5625391225400949e-05 -7.7594313898430255e-05 0 5.3944737911346224e-06 -4.6902455692277206e-05 0 9.1148144999868346e-06 -6.6433590172216509e-05 0 1.5625335985635998e-05 -4.6902516338220551e-05 0 9.1148144999868346e-06 -6.6433590172216509e-05 0 1.5625391225400949e-05 -7.7594313898430255e-05 0 1.5625335985635998e-05 -4.6902516338220551e-05 0 2.2135876044716875e-05 -6.6433739367417353e-05 0 2.5856104122678227e-05 -4.6902602791739151e-05 0 1.5625335985635998e-05 -4.6902516338220551e-05 0 2.2135876044716875e-05 -6.6433739367417353e-05 0 1.5625391225400949e-05 -7.7594313898430255e-05 0 1.5625335985635998e-05 -4.6902516338220551e-05 0 2.2135876044716875e-05 -6.6433739367417353e-05 0 2.0833891808535333e-05 -9.377737388895622e-05 0 1.5625391225400949e-05 -7.7594313898430255e-05 0 1.0416989008357058e-05 -9.3777176212579434e-05 0 2.0833891808535333e-05 -9.377737388895622e-05 0 1.5625391225400949e-05 -7.7594313898430255e-05 0 2.2135876044716875e-05 -6.6433739367417353e-05 0 3.1250629289878332e-05 -9.3777561118046077e-05 0 3.1250487398818781e-05 -6.2527613090759441e-05 0 2.2135876044716875e-05 -6.6433739367417353e-05 0 2.0833891808535333e-05 -9.377737388895622e-05 0 3.1250629289878332e-05 -9.3777561118046077e-05 0 2.2135876044716875e-05 -6.6433739367417353e-05 0 3.1250487398818781e-05 -6.2527613090759441e-05 0 2.5856104122678227e-05 -4.6902602791739151e-05 0 3.1250487398818781e-05 -6.2527613090759441e-05 0 3.1250434903772209e-05 -3.1277679860554605e-05 0 2.5856104122678227e-05 -4.6902602791739151e-05 0 3.1250434903772209e-05 -3.1277679860554605e-05 0 2.5856104122678227e-05 -4.6902602791739151e-05 0 2.2135823089482704e-05 -2.73714093275782e-05 0 3.1250435361090271e-05 -2.7777708895776492e-08 0 2.0833719559502689e-05 -2.7777758228265885e-08 0 2.2135823089482704e-05 -2.73714093275782e-05 0 3.1250434903772209e-05 -3.1277679860554605e-05 0 3.1250435361090271e-05 -2.7777708895776492e-08 0 2.2135823089482704e-05 -2.73714093275782e-05 0 1.5625317792030111e-05 -1.6210723933280742e-05 0 2.0833719559502689e-05 -2.7777758228265885e-08 0 2.2135823089482704e-05 -2.73714093275782e-05 0 2.5856104122678227e-05 -4.6902602791739151e-05 0 1.5625335985635998e-05 -4.6902516338220551e-05 0 2.2135823089482704e-05 -2.73714093275782e-05 0 1.5625317792030111e-05 -1.6210723933280742e-05 0 1.5625335985635998e-05 -4.6902516338220551e-05 0 2.2135823089482704e-05 -2.73714093275782e-05 0 
</DataArray>
</PointData>
<CellData Scalars="displacement_divergence," Vectors="" Tensors="stress,">
<DataArray type="Float64" Name="stress" NumberOfComponents="9" format="ascii">
0.10926080510489555 -0.0018459122102285619 0 -0.0018459122102285619 -9999.8938297688746 0 0 0 -2499.9461422409427 0.10581395301505836 0.00053522656827726767 0 0.00053522656827726767 -9999.8999074718977 0 0 0 -2499.9485233797213 0.078302757925104327 0.0026699324839603022 0 0.0026699324839603022 -9999.9185530212726 0 0 0 -2499.9600625658377 0.090247412198095844 -0.0033844869535641919 0 -0.0033844869535641919 -9999.9063154502182 0 0 0 -2499.9540170095052 0.09961541017082709 -0.0070235201419563964 0 -0.0070235201419563964 -9999.9039097228051 0 0 0 -2499.9510735781582 0.091524344707067939 -0.002605680141641642 0 -0.002605680141641642 -9999.9134900173412 0 0 0 -2499.955491418159 0.1107261556571757 0.00013293873416841961 0 0.00013293873416841961 -9999.891587909573 0 0 0 -2499.945215438478 0.11670322994359594 -0.0022447149394793087 0 -0.0022447149394793087 -9999.8882450200363 0 0 0 -2499.9428854475236 0.11921568450634368 -0.0029197348721936578 0 -0.0029197348721936578 -9999.8940385924652 0 0 0 -2499.9437057269897 0.13985569121177832 -0.0026344648825193245 0 -0.0026344648825193245 -9999.889756264718 0 0 0 -2499.937475143377 0.12344352721506653 -0.0051243591406091582 0 -0.0051243591406091582 -9999.883303677756 0 0 0 -2499.9399650376358 0.10181464191646228 -0.0071298848451988306 0 -0.0071298848451988306 -9999.9000175301335 0 0 0 -2499.9495507220536 0.10244752334710938 -0.0021905856110606692 0 -0.0021905856110606692 -9999.8954133832685 0 0 0 -2499.9482414649801 0.10099443723811419 -0.0067037628055004461 0 -0.0067037628055004461 -9999.9120130059273 0 0 0 -2499.9527546421705 0.057298589269521472 -0.0007240889681270346 0 -0.0007240889681270346 -9999.9389232895574 0 0 0 -2499.9704061750699 0.071196964427144849 -0.0084431309319370484 0 -0.0084431309319370484 -9999.9219454968625 0 0 0 -2499.9626871331093 0.081184987136566633 -0.0025298791297245771 0 -0.0025298791297245771 -9999.9380829259626 0 0 0 -2499.9642244847078 0.10228588666359428 -0.012324273286829118 0 -0.012324273286829118 -9999.9198305250247 0 0 0 -2499.9543861595921 0.025062536386940337 0.00095010670429473976 0 0.00095010670429473976 -9999.9750145265934 0 0 0 -2499.9874879975514 0.038120699698765748 -0.0076630612966255285 0 -0.0076630612966255285 -9999.9536200179027 0 0 0 -2499.9788748295523 0.026606367648128071 -0.010603042255752371 0 -0.010603042255752371 -9999.9560498373321 0 0 0 -2499.9823608674178 0.016208811748205276 -0.0038232272745517548 0 -0.0038232272745517548 -9999.9732307297036 0 0 0 -2499.9892554794892 0.022484137269657367 0.0017917188815772533 0 0.0017917188815772533 -9999.9563135231201 0 0 0 -2499.9834573464636 0.033929631672890537 0.0019334297541886744 0 0.0019334297541886744 -9999.9453806027268 0 0 0 -2499.9778627427631 0.023483189181725601 -0.0045482366931537399 0 -0.0045482366931537399 -9999.9608608260223 0 0 0 -2499.9843444092107 0.067241644359455677 -0.0036969373049942078 0 -0.0036969373049942078 -9999.9327254442414 0 0 0 -2499.966370949971 0.058448055678127275 -0.010234606905518334 0 -0.010234606905518334 -9999.935474890337 0 0 0 -2499.969256708664 0.068241298919846941 -0.0042303316622565035 0 -0.0042303316622565035 -9999.9212510326015 0 0 0 -2499.9632524334193 
</DataArray>
<DataArray type="Float64" Name="displacement_divergence" format="ascii">
-6.2498653556023574e-05 -6.2498713084493035e-05 -6.2499001564145947e-05 -6.2498850425237633e-05 -6.249877683945394e-05 -6.2498887285453969e-05 -6.2498630385961933e-05 -6.2498572136188087e-05 -6.2498592643174793e-05 -6.2498436878584413e-05 -6.2498499125940838e-05 -6.2498738768051315e-05 -6.2498706036624561e-05 -6.2498818866054334e-05 -6.2499260154376786e-05 -6.2499067178327746e-05 -6.2499105612117724e-05 -6.2498859653989727e-05 -6.2499687199938812e-05 -6.2499471870738839e-05 -6.2499559021685536e-05 -6.2499731386987228e-05 -6.2499586433661572e-05 -6.2499446568569096e-05 -6.2499608610230259e-05 -6.2499159273749259e-05 -6.2499231417716627e-05 -6.2499081310835478e-05 
</DataArray>
</CellData>
</Piece>
</UnstructuredGrid>
</VTKFile>
