<?xml version="1.0"?>
<VTKFile type="UnstructuredGrid" version="0.1" byte_order="LittleEndian">
<UnstructuredGrid>
<Piece NumberOfPoints="84" NumberOfCells="28">
<Points>
<DataArray type="Float64" NumberOfComponents="3" format="ascii">
0 0 0 0.29166666666652658 0.2916666666668038 0 0 0.33333333333472032 0 0 0 0 0.33333333333250248 0 0 0.29166666666652658 0.2916666666668038 0 0.49999999999981742 0.1726190476194705 0 0.33333333333250248 0 0 0.66666666666578889 0 0 0.49999999999981742 0.1726190476194705 0 0.33333333333250248 0 0 0.29166666666652658 0.2916666666668038 0 0.29166666666652658 0.2916666666668038 0 0.17261904761971569 0.50000000000021494 0 0.50000000000004996 0.49999999999997519 0 0.49999999999981742 0.1726190476194705 0 0.29166666666652658 0.2916666666668038 0 0.50000000000004996 0.49999999999997519 0 0.29166666666652658 0.2916666666668038 0 0 0.33333333333472032 0 0.17261904761971569 0.50000000000021494 0 0 0.33333333333472032 0 0.17261904761971569 0.50000000000021494 0 0 0.66666666666759111 0 0.17261904761971569 0.50000000000021494 0 0 0.66666666666759111 0 0.29166666666684449 0.7083333333334445 0 0 1 0 0.33333333333472032 1 0 0.29166666666684449 0.7083333333334445 0 0 0.66666666666759111 0 0 1 0 0.29166666666684449 0.7083333333334445 0 0.33333333333472032 1 0 0.29166666666684449 0.7083333333334445 0 0.50000000000021227 0.82738095238030207 0 0.17261904761971569 0.50000000000021494 0 0.29166666666684449 0.7083333333334445 0 0.50000000000004996 0.49999999999997519 0 0.29166666666684449 0.7083333333334445 0 0.50000000000021227 0.82738095238030207 0 0.50000000000004996 0.49999999999997519 0 0.70833333333346027 0.70833333333323512 0 0.82738095238054699 0.49999999999982031 0 0.50000000000004996 0.49999999999997519 0 0.70833333333346027 0.70833333333323512 0 0.50000000000021227 0.82738095238030207 0 0.50000000000004996 0.49999999999997519 0 0.70833333333346027 0.70833333333323512 0 0.66666666666759111 1 0 0.50000000000021227 0.82738095238030207 0 0.33333333333472032 1 0 0.66666666666759111 1 0 0.50000000000021227 0.82738095238030207 0 0.70833333333346027 0.70833333333323512 0 1 1 0 1 0.66666666666578889 0 0.70833333333346027 0.70833333333323512 0 0.66666666666759111 1 0 1 1 0 0.70833333333346027 0.70833333333323512 0 1 0.66666666666578889 0 0.82738095238054699 0.49999999999982031 0 1 0.66666666666578889 0 1 0.33333333333250248 0 0.82738095238054699 0.49999999999982031 0 1 0.33333333333250248 0 0.82738095238054699 0.49999999999982031 0 0.70833333333327586 0.2916666666665107 0 1 0 0 0.66666666666578889 0 0 0.70833333333327586 0.2916666666665107 0 1 0.33333333333250248 0 1 0 0 0.70833333333327586 0.2916666666665107 0 0.49999999999981742 0.1726190476194705 0 0.66666666666578889 0 0 0.70833333333327586 0.2916666666665107 0 0.82738095238054699 0.49999999999982031 0 0.50000000000004996 0.49999999999997519 0 0.70833333333327586 0.2916666666665107 0 0.49999999999981742 0.1726190476194705 0 0.50000000000004996 0.49999999999997519 0 0.70833333333327586 0.2916666666665107 0 
</DataArray>
</Points>
<Cells>
<DataArray type="UInt32" Name="connectivity" format="ascii">
0 1 2 3 4 5 6 7 8 9 10 11 12 13 14 15 16 17 18 19 20 21 22 23 24 25 26 27 28 29 30 31 32 33 34 35 36 37 38 39 40 41 42 43 44 45 46 47 48 49 50 51 52 53 54 55 56 57 58 59 60 61 62 63 64 65 66 67 68 69 70 71 72 73 74 75 76 77 78 79 80 81 82 83 
</DataArray>
<DataArray type="UInt32" Name="offsets" format="ascii">
3 6 9 12 15 18 21 24 27 30 33 36 39 42 45 48 51 54 57 60 63 66 69 72 75 78 81 84 
</DataArray>
<DataArray type="UInt32" Name="types" format="ascii">
5 5 5 5 5 5 5 5 5 5 5 5 5 5 5 5 5 5 5 5 5 5 5 5 5 5 5 5 
</DataArray>
</Cells>
<PointData Scalars="" Vectors="displacement," Tensors="">
<DataArray type="Float64" Name="displacement" NumberOfComponents="3" format="ascii">
-5.7521780921314765e-14 -2.7777786078757468e-08 0 9.1152425858224099e-06 -2.7370843437024569e-05 0 -1.9286141789378956e-14 -3.1276982356572705e-05 0 -5.7521780921314765e-14 -2.7777786078757468e-08 0 1.0417415829127971e-05 -2.7777781181774533e-08 0 9.1152425858224099e-06 -2.7370843437024569e-05 0 1.5626133107344319e-05 -1.6210424051743802e-05 0 1.0417415829127971e-05 -2.7777781181774533e-08 0 2.0834830631787992e-05 -2.7777918509409799e-08 0 1.5626133107344319e-05 -1.6210424051743802e-05 0 1.0417415829127971e-05 -2.7777781181774533e-08 0 9.1152425858224099e-06 -2.7370843437024569e-05 0 9.1152425858224099e-06 -2.7370843437024569e-05 0 5.3947474795332176e-06 -4.6901589982623991e-05 0 1.5626166314175267e-05 -4.6901655461015885e-05 0 1.5626133107344319e-05 -1.6210424051743802e-05 0 9.1152425858224099e-06 -2.7370843437024569e-05 0 1.5626166314175267e-05 -4.6901655461015885e-05 0 9.1152425858224099e-06 -2.7370843437024569e-05 0 -1.9286141789378956e-14 -3.1276982356572705e-05 0 5.3947474795332176e-06 -4.6901589982623991e-05 0 -1.9286141789378956e-14 -3.1276982356572705e-05 0 5.3947474795332176e-06 -4.6901589982623991e-05 0 -1.4890039237432844e-14 -6.2526190989617842e-05 0 5.3947474795332176e-06 -4.6901589982623991e-05 0 -1.4890039237432844e-14 -6.2526190989617842e-05 0 9.1152957578924419e-06 -6.64323673287396e-05 0 1.2587429264483965e-13 -9.3775407374871699e-05 0 1.0417542632916821e-05 -9.377545489335076e-05 0 9.1152957578924419e-06 -6.64323673287396e-05 0 -1.4890039237432844e-14 -6.2526190989617842e-05 0 1.2587429264483965e-13 -9.3775407374871699e-05 0 9.1152957578924419e-06 -6.64323673287396e-05 0 1.0417542632916821e-05 -9.377545489335076e-05 0 9.1152957578924419e-06 -6.64323673287396e-05 0 1.5626252826375906e-05 -7.7592878584227911e-05 0 5.3947474795332176e-06 -4.6901589982623991e-05 0 9.1152957578924419e-06 -6.64323673287396e-05 0 1.5626166314175267e-05 -4.6901655461015885e-05 0 9.1152957578924419e-06 -6.64323673287396e-05 0 1.5626252826375906e-05 -7.7592878584227911e-05 0 1.5626166314175267e-05 -4.6901655461015885e-05 0 2.2137129423289714e-05 -6.6432529720388461e-05 0 2.5857574942610573e-05 -4.6901781216431501e-05 0 1.5626166314175267e-05 -4.6901655461015885e-05 0 2.2137129423289714e-05 -6.6432529720388461e-05 0 1.5626252826375906e-05 -7.7592878584227911e-05 0 1.5626166314175267e-05 -4.6901655461015885e-05 0 2.2137129423289714e-05 -6.6432529720388461e-05 0 2.0835106468421688e-05 -9.3775635674877878e-05 0 1.5626252826375906e-05 -7.7592878584227911e-05 0 1.0417542632916821e-05 -9.377545489335076e-05 0 2.0835106468421688e-05 -9.3775635674877878e-05 0 1.5626252826375906e-05 -7.7592878584227911e-05 0 2.2137129423289714e-05 -6.6432529720388461e-05 0 3.1252455844734293e-05 -9.3776071448478459e-05 0 3.1252144127952288e-05 -6.2526559861149212e-05 0 2.2137129423289714e-05 -6.6432529720388461e-05 0 2.0835106468421688e-05 -9.3775635674877878e-05 0 3.1252455844734293e-05 -9.3776071448478459e-05 0 2.2137129423289714e-05 -6.6432529720388461e-05 0 3.1252144127952288e-05 -6.2526559861149212e-05 0 2.5857574942610573e-05 -4.6901781216431501e-05 0 3.1252144127952288e-05 -6.2526559861149212e-05 0 3.1252061469849411e-05 -3.1277169958663177e-05 0 2.5857574942610573e-05 -4.6901781216431501e-05 0 3.1252061469849411e-05 -3.1277169958663177e-05 0 2.5857574942610573e-05 -4.6901781216431501e-05 0 2.2137057924834568e-05 -2.7370932575377948e-05 0 3.1252139666625052e-05 -2.7777481205441686e-08 0 2.0834830631787992e-05 -2.7777918509409799e-08 0 2.2137057924834568e-05 -2.7370932575377948e-05 0 3.1252061469849411e-05 -3.1277169958663177e-05 0 3.1252139666625052e-05 -2.7777481205441686e-08 0 2.2137057924834568e-05 -2.7370932575377948e-05 0 1.5626133107344319e-05 -1.6210424051743802e-05 0 2.0834830631787992e-05 -2.7777918509409799e-08 0 2.2137057924834568e-05 -2.7370932575377948e-05 0 2.5857574942610573e-05 -4.6901781216431501e-05 0 1.5626166314175267e-05 -4.6901655461015885e-05 0 2.2137057924834568e-05 -2.7370932575377948e-05 0 1.5626133107344319e-05 -1.6210424051743802e-05 0 1.5626166314175267e-05 -4.6901655461015885e-05 0 2.2137057924834568e-05 -2.7370932575377948e-05 0 
</DataArray>
</PointData>
<CellData Scalars="displacement_divergence," Vectors="" Tensors="stress,">
<DataArray type="Float64" Name="stress" NumberOfComponents="9" format="ascii">
0.36669676919518679 -0.0015933817157929298 0 -0.0015933817157929298 -9999.6232302600565 0 0 0 -2499.8141333727158 0.36357220195895934 0.00051384578316822805 0 0.00051384578316822805 -9999.6285346028162 0 0 0 -2499.8162406002148 0.35958838952806671 0.0022722287907246397 0 0.0022722287907246397 -9999.6394453864395 0 0 0 -2499.8199642492277 0.36757251153903781 -0.0025305698827651213 0 -0.0025305698827651213 -9999.6284419523781 0 0 0 -2499.8152173602093 0.37215905834727891 -0.0040002277346502524 0 -0.0040002277346502524 -9999.6303692139554 0 0 0 -2499.8145525389036 0.36943988862913102 -0.0013955102367617656 0 -0.0013955102367617656 -9999.6380689142352 0 0 0 -2499.8171572564015 0.36810222446547414 0.00097388283506916196 0 0.00097388283506916196 -9999.6218948327842 0 0 0 -2499.8134481520801 0.37460304540218203 -0.0007663905935260118 0 -0.0007663905935260118 -9999.6218949065242 0 0 0 -2499.81182296528 0.383910909997212 0.00093753924920747522 0 0.00093753924920747522 -9999.6252818345547 0 0 0 -2499.810342731138 0.40696540267344972 0.0017119464016127428 0 0.0017119464016127428 -9999.6199105112028 0 0 0 -2499.8032362771301 0.38714446233520788 -0.003314449597382918 0 -0.003314449597382918 -9999.6201951548555 0 0 0 -2499.8082626731298 0.38993320481222327 -0.0057987619820778491 0 -0.0057987619820778491 -9999.6223960004572 0 0 0 -2499.8081156989128 0.37538852364832564 -0.0017912801622514962 0 -0.0017912801622514962 -9999.6206808180486 0 0 0 -2499.8113230736008 0.3837076481877375 -0.0021946072165519581 0 -0.0021946072165519581 -9999.6306132507889 0 0 0 -2499.8117264006496 0.36383358156535905 -0.0025568626952008344 0 -0.0025568626952008344 -9999.6453695361615 0 0 0 -2499.8203839886496 0.37359677141557768 -0.0078441584360007255 0 -0.0078441584360007255 -9999.6339835430481 0 0 0 -2499.8150966929088 0.38918866592393897 0.0013141257695679087 0 0.0013141257695679087 -9999.6429010246666 0 0 0 -2499.8134280896866 0.40849034464554279 -0.0050735400425380639 0 -0.0050735400425380639 -9999.6358110646179 0 0 0 -2499.806830179994 0.25211917053275101 0.0073594895357018686 0 0.0073594895357018686 -9999.7596681955183 0 0 0 -2499.8768872562468 0.32663132107177262 -0.032308765821653651 0 -0.032308765821653651 -9999.6755073246204 0 0 0 -2499.8372190008868 0.25560991447673587 -0.033411460419756622 0 -0.033411460419756622 -9999.6989546778241 0 0 0 -2499.8608361908355 0.20016282378727188 -0.0094748405845166417 0 -0.0094748405845166417 -9999.7380478556734 0 0 0 -2499.8844712579726 0.24609752781680072 0.012352177021057287 0 0.012352177021057287 -9999.6970764089201 0 0 0 -2499.8627447202784 0.31289209085161929 0.0087834940395350811 0 0.0087834940395350811 -9999.6779971446904 0 0 0 -2499.8412762634598 0.24981133527043528 -0.018068000259518158 0 -0.018068000259518158 -9999.7223223663095 0 0 0 -2499.8681277577602 0.36461766035017718 -0.0014634228937211446 0 -0.0014634228937211446 -9999.6577697231478 0 0 0 -2499.8232880157002 0.36216728809995402 -0.014445489223709562 0 -0.014445489223709562 -9999.6503684165655 0 0 0 -2499.8220502821159 0.37528372305481572 -0.007604518699736218 0 -0.007604518699736218 -9999.6361209694205 0 0 0 -2499.8152093115914 
</DataArray>
<DataArray type="Float64" Name="displacement_divergence" format="ascii">
-6.249535333431789e-05 -6.2495406015005339e-05 -6.2495499106230714e-05 -6.2495380434005239e-05 -6.2495363813472557e-05 -6.2495428931410048e-05 -6.2495336203802025e-05 -6.2495295574132014e-05 -6.24952585682785e-05 -6.2495080906928242e-05 -6.2495206566828222e-05 -6.2495202892472805e-05 -6.2495283076839967e-05 -6.2495293160016286e-05 -6.2495509599716216e-05 -6.2495377417322713e-05 -6.2495335702242213e-05 -6.2495170754499764e-05 -6.2496922181406154e-05 -6.2495930475022163e-05 -6.2496520904770862e-05 -6.2497111781449272e-05 -6.249656861800688e-05 -6.249603190658651e-05 -6.2496703193944011e-05 -6.2495582200392501e-05 -6.2495551257052894e-05 -6.2495380232789784e-05 
</DataArray>
</CellData>
</Piece>
</UnstructuredGrid>
</VTKFile>
