<?xml version="1.0"?>
<VTKFile type="UnstructuredGrid" version="0.1" byte_order="LittleEndian">
<UnstructuredGrid>
<Piece NumberOfPoints="84" NumberOfCells="28">
<Points>
<DataArray type="Float64" NumberOfComponents="3" format="ascii">
0 0 0 0.29166666666652658 0.2916666666668038 0 0 0.33333333333472032 0 0 0 0 0.33333333333250248 0 0 0.29166666666652658 0.2916666666668038 0 0.49999999999981742 0.1726190476194705 0 0.33333333333250248 0 0 0.66666666666578889 0 0 0.49999999999981742 0.1726190476194705 0 0.33333333333250248 0 0 0.29166666666652658 0.2916666666668038 0 0.29166666666652658 0.2916666666668038 0 0.17261904761971569 0.50000000000021494 0 0.50000000000004996 0.49999999999997519 0 0.49999999999981742 0.1726190476194705 0 0.29166666666652658 0.2916666666668038 0 0.50000000000004996 0.49999999999997519 0 0.29166666666652658 0.2916666666668038 0 0 0.33333333333472032 0 0.17261904761971569 0.50000000000021494 0 0 0.33333333333472032 0 0.17261904761971569 0.50000000000021494 0 0 0.66666666666759111 0 0.17261904761971569 0.50000000000021494 0 0 0.66666666666759111 0 0.29166666666684449 0.7083333333334445 0 0 1 0 0.33333333333472032 1 0 0.29166666666684449 0.7083333333334445 0 0 0.66666666666759111 0 0 1 0 0.29166666666684449 0.7083333333334445 0 0.33333333333472032 1 0 0.29166666666684449 0.7083333333334445 0 0.50000000000021227 0.82738095238030207 0 0.17261904761971569 0.50000000000021494 0 0.29166666666684449 0.7083333333334445 0 0.50000000000004996 0.49999999999997519 0 0.29166666666684449 0.7083333333334445 0 0.50000000000021227 0.82738095238030207 0 0.50000000000004996 0.49999999999997519 0 0.70833333333346027 0.70833333333323512 0 0.82738095238054699 0.49999999999982031 0 0.50000000000004996 0.49999999999997519 0 0.70833333333346027 0.70833333333323512 0 0.50000000000021227 0.82738095238030207 0 0.50000000000004996 0.49999999999997519 0 0.70833333333346027 0.70833333333323512 0 0.66666666666759111 1 0 0.50000000000021227 0.82738095238030207 0 0.33333333333472032 1 0 0.66666666666759111 1 0 0.50000000000021227 0.82738095238030207 0 0.70833333333346027 0.70833333333323512 0 1 1 0 1 0.66666666666578889 0 0.70833333333346027 0.70833333333323512 0 0.66666666666759111 1 0 1 1 0 0.70833333333346027 0.70833333333323512 0 1 0.66666666666578889 0 0.82738095238054699 0.49999999999982031 0 1 0.66666666666578889 0 1 0.33333333333250248 0 0.82738095238054699 0.49999999999982031 0 1 0.33333333333250248 0 0.82738095238054699 0.49999999999982031 0 0.70833333333327586 0.2916666666665107 0 1 0 0 0.66666666666578889 0 0 0.70833333333327586 0.2916666666665107 0 1 0.33333333333250248 0 1 0 0 0.70833333333327586 0.2916666666665107 0 0.49999999999981742 0.1726190476194705 0 0.66666666666578889 0 0 0.70833333333327586 0.2916666666665107 0 0.82738095238054699 0.49999999999982031 0 0.50000000000004996 0.49999999999997519 0 0.70833333333327586 0.2916666666665107 0 0.49999999999981742 0.1726190476194705 0 0.50000000000004996 0.49999999999997519 0 0.70833333333327586 0.2916666666665107 0 
</DataArray>
</Points>
<Cells>
<DataArray type="UInt32" Name="connectivity" format="ascii">
0 1 2 3 4 5 6 7 8 9 10 11 12 13 14 15 16 17 18 19 20 21 22 23 24 25 26 27 28 29 30 31 32 33 34 35 36 37 38 39 40 41 42 43 44 45 46 47 48 49 50 51 52 53 54 55 56 57 58 59 60 61 62 63 64 65 66 67 68 69 70 71 72 73 74 75 76 77 78 79 80 81 82 83 
</DataArray>
<DataArray type="UInt32" Name="offsets" format="ascii">
3 6 9 12 15 18 21 24 27 30 33 36 39 42 45 48 51 54 57 60 63 66 69 72 75 78 81 84 
</DataArray>
<DataArray type="UInt32" Name="types" format="ascii">
5 5 5 5 5 5 5 5 5 5 5 5 5 5 5 5 5 5 5 5 5 5 5 5 5 5 5 5 
</DataArray>
</Cells>
<PointData Scalars="" Vectors="displacement," Tensors="">
<DataArray type="Float64" Name="displacement" NumberOfComponents="3" format="ascii">
-1.0443603148530817e-13 -2.7777828822703736e-08 0 9.1152084424079822e-06 -2.7370925325998134e-05 0 -4.067852966270956e-14 -3.127705201931572e-05 0 -1.0443603148530817e-13 -2.7777828822703736e-08 0 1.0417377098979988e-05 -2.7777875267971425e-08 0 9.1152084424079822e-06 -2.7370925325998134e-05 0 1.5626044161261645e-05 -1.6210497715546263e-05 0 1.0417377098979988e-05 -2.7777875267971425e-08 0 2.0834661304926232e-05 -2.7777793240587869e-08 0 1.5626044161261645e-05 -1.6210497715546263e-05 0 1.0417377098979988e-05 -2.7777875267971425e-08 0 9.1152084424079822e-06 -2.7370925325998134e-05 0 9.1152084424079822e-06 -2.7370925325998134e-05 0 5.3947351642098866e-06 -4.690170124002658e-05 0 1.5626093255314257e-05 -4.6901855961023093e-05 0 1.5626044161261645e-05 -1.6210497715546263e-05 0 9.1152084424079822e-06 -2.7370925325998134e-05 0 1.5626093255314257e-05 -4.6901855961023093e-05 0 9.1152084424079822e-06 -2.7370925325998134e-05 0 -4.067852966270956e-14 -3.127705201931572e-05 0 5.3947351642098866e-06 -4.690170124002658e-05 0 -4.067852966270956e-14 -3.127705201931572e-05 0 5.3947351642098866e-06 -4.690170124002658e-05 0 -6.4057995869367539e-14 -6.2526312438112441e-05 0 5.3947351642098866e-06 -4.690170124002658e-05 0 -6.4057995869367539e-14 -6.2526312438112441e-05 0 9.1152951327944105e-06 -6.6432549768404321e-05 0 3.1390827784453608e-13 -9.3775563108942141e-05 0 1.0417632347872777e-05 -9.3775727772421214e-05 0 9.1152951327944105e-06 -6.6432549768404321e-05 0 -6.4057995869367539e-14 -6.2526312438112441e-05 0 3.1390827784453608e-13 -9.3775563108942141e-05 0 9.1152951327944105e-06 -6.6432549768404321e-05 0 1.0417632347872777e-05 -9.3775727772421214e-05 0 9.1152951327944105e-06 -6.6432549768404321e-05 0 1.5626250709125771e-05 -7.7593219195817097e-05 0 5.3947351642098866e-06 -4.690170124002658e-05 0 9.1152951327944105e-06 -6.6432549768404321e-05 0 1.5626093255314257e-05 -4.6901855961023093e-05 0 9.1152951327944105e-06 -6.6432549768404321e-05 0 1.5626250709125771e-05 -7.7593219195817097e-05 0 1.5626093255314257e-05 -4.6901855961023093e-05 0 2.2136977204037869e-05 -6.6432936350798835e-05 0 2.5857246941950846e-05 -4.6902094344827495e-05 0 1.5626093255314257e-05 -4.6901855961023093e-05 0 2.2136977204037869e-05 -6.6432936350798835e-05 0 1.5626250709125771e-05 -7.7593219195817097e-05 0 1.5626093255314257e-05 -4.6901855961023093e-05 0 2.2136977204037869e-05 -6.6432936350798835e-05 0 2.0835147043012084e-05 -9.3776230913056638e-05 0 1.5626250709125771e-05 -7.7593219195817097e-05 0 1.0417632347872777e-05 -9.3775727772421214e-05 0 2.0835147043012084e-05 -9.3776230913056638e-05 0 1.5626250709125771e-05 -7.7593219195817097e-05 0 2.2136977204037869e-05 -6.6432936350798835e-05 0 3.1252156446678832e-05 -9.3776822251823654e-05 0 3.1251723711549093e-05 -6.2527068206075397e-05 0 2.2136977204037869e-05 -6.6432936350798835e-05 0 2.0835147043012084e-05 -9.3776230913056638e-05 0 3.1252156446678832e-05 -9.3776822251823654e-05 0 2.2136977204037869e-05 -6.6432936350798835e-05 0 3.1251723711549093e-05 -6.2527068206075397e-05 0 2.5857246941950846e-05 -4.6902094344827495e-05 0 3.1251723711549093e-05 -6.2527068206075397e-05 0 3.1251576753894551e-05 -3.1277380017521932e-05 0 2.5857246941950846e-05 -4.6902094344827495e-05 0 3.1251576753894551e-05 -3.1277380017521932e-05 0 2.5857246941950846e-05 -4.6902094344827495e-05 0 2.2136834954748749e-05 -2.7371087544169253e-05 0 3.125160655706305e-05 -2.7777500827451367e-08 0 2.0834661304926232e-05 -2.7777793240587869e-08 0 2.2136834954748749e-05 -2.7371087544169253e-05 0 3.1251576753894551e-05 -3.1277380017521932e-05 0 3.125160655706305e-05 -2.7777500827451367e-08 0 2.2136834954748749e-05 -2.7371087544169253e-05 0 1.5626044161261645e-05 -1.6210497715546263e-05 0 2.0834661304926232e-05 -2.7777793240587869e-08 0 2.2136834954748749e-05 -2.7371087544169253e-05 0 2.5857246941950846e-05 -4.6902094344827495e-05 0 1.5626093255314257e-05 -4.6901855961023093e-05 0 2.2136834954748749e-05 -2.7371087544169253e-05 0 1.5626044161261645e-05 -1.6210497715546263e-05 0 1.5626093255314257e-05 -4.6901855961023093e-05 0 2.2136834954748749e-05 -2.7371087544169253e-05 0 
</DataArray>
</PointData>
<CellData Scalars="displacement_divergence," Vectors="" Tensors="stress,">
<DataArray type="Float64" Name="stress" NumberOfComponents="9" format="ascii">
0.34430490707836725 -0.004460544980247505 0 -0.004460544980247505 -9999.6529726137996 0 0 0 -2499.8271669266805 0.33842777310883321 0.00047358130817894438 0 0.00047358130817894438 -9999.6668319849814 0 0 0 -2499.832101052968 0.29550027856292971 0.0057935126748143162 0 0.0057935126748143162 -9999.706336874111 0 0 0 -2499.8527091488868 0.32240543706939206 -0.0087426119803239999 0 -0.0087426119803239999 -9999.6754150965007 0 0 0 -2499.8382524148583 0.33802429594879868 -0.014954061294702115 0 -0.014954061294702115 -9999.6733994541373 0 0 0 -2499.8338437895477 0.32570412440418295 -0.006730620960752276 0 -0.006730620960752276 -9999.6939730439299 0 0 0 -2499.8420672298816 0.34758809098457277 -7.7257642260519788e-05 0 -7.7257642260519788e-05 -9999.647888249463 0 0 0 -2499.8250750396201 0.35985200796676509 -0.0044082059739594115 0 -0.0044082059739594115 -9999.6433833595074 0 0 0 -2499.8208828378856 0.37292819071808481 -0.003551316123775905 0 -0.003551316123775905 -9999.6547487634325 0 0 0 -2499.8204551431782 0.428800176083314 -0.0014907077141265387 0 -0.0014907077141265387 -9999.6403520360655 0 0 0 -2499.8028879649955 0.38278104018777298 -0.011062735964515014 0 -0.011062735964515014 -9999.632621013172 0 0 0 -2499.8124599932466 0.35708872341319875 -0.01761439602887549 0 -0.01761439602887549 -9999.6567616270004 0 0 0 -2499.8249182258965 0.34568701808666447 -0.0062095772382235737 0 -0.0062095772382235737 -9999.6504112877228 0 0 0 -2499.8261810674089 0.35087003788339644 -0.014113505808836635 0 -0.014113505808836635 -9999.6872100217806 0 0 0 -2499.8340849959741 0.24456992798423016 -0.0003675465586638893 0 -0.0003675465586638893 -9999.7539664769211 0 0 0 -2499.8773491372349 0.284877973456787 -0.021634333010297269 0 -0.021634333010297269 -9999.7092073765925 0 0 0 -2499.8560823507842 0.31426272519320264 -0.0042752380268211709 0 -0.0042752380268211709 -9999.7482421752338 0 0 0 -2499.8584948625098 0.36914587931823917 -0.028170398671825522 0 -0.028170398671825522 -9999.7066697096525 0 0 0 -2499.8343809575817 0.11890399015010189 0.0037758419139208854 0 0.0037758419139208854 -9999.8816599497222 0 0 0 -2499.9406889898937 0.17570812890312482 -0.030364389927854063 0 -0.030364389927854063 -9999.8019031611038 0 0 0 -2499.9065487580483 0.12297981166557292 -0.037529545517827501 0 -0.037529545517827501 -9999.8184388271729 0 0 0 -2499.9238647538768 0.07777398296601308 -0.012435235634256969 0 -0.012435235634256969 -9999.8742956775241 0 0 0 -2499.9491304236376 0.1098812356444796 0.0092263493152131559 0 0.0092263493152131559 -9999.8181215256882 0 0 0 -2499.9270600725126 0.16066276007495617 0.007645596987437199 0 0.007645596987437199 -9999.7854537447856 0 0 0 -2499.9061977461779 0.11442808380245813 -0.016215304022807686 0 -0.016215304022807686 -9999.8346626725561 0 0 0 -2499.9300586471886 0.27355806695641149 -0.0092347639947547577 0 -0.0092347639947547577 -9999.7434093315551 0 0 0 -2499.8674628161502 0.24621639583165233 -0.030572927879226053 0 -0.030572927879226053 -9999.7490270733852 0 0 0 -2499.8757026693875 0.2792611683442931 -0.012418473725119838 0 -0.012418473725119838 -9999.7094540292765 0 0 0 -2499.8575482152328 
</DataArray>
<DataArray type="Float64" Name="displacement_divergence" format="ascii">
-6.249567917316701e-05 -6.2495802526324208e-05 -6.2496317728722177e-05 -6.2495956310371431e-05 -6.2495846094738655e-05 -6.2496051680747036e-05 -6.2495626875990493e-05 -6.2495522070947132e-05 -6.2495511378579433e-05 -6.2495072199124884e-05 -6.2495311499831128e-05 -6.2495622955647466e-05 -6.2495654526685296e-05 -6.24958521248994e-05 -6.2496933728430857e-05 -6.2496402058769598e-05 -6.2496462371562796e-05 -6.2495859523939575e-05 -6.2498517224747349e-05 -6.2497663718951308e-05 -6.2498096618846899e-05 -6.2498728260590962e-05 -6.2498176501812728e-05 -6.2497654943654453e-05 -6.2498251466179731e-05 -6.2496686570403766e-05 -6.2496892566734708e-05 -6.249643870538084e-05 
</DataArray>
</CellData>
</Piece>
</UnstructuredGrid>
</VTKFile>
